108
Lattice="10.83 0.0 0.0 0.0 10.83 0.0 0.0 0.0 10.83" Properties=species:S:1:pos:R:3 pbc="T T T"
Cu       0.00000000       0.00000000       0.00000000
Cu       0.00000000       1.80500000       1.80500000
Cu       1.80500000       0.00000000       1.80500000
Cu       1.80500000       1.80500000       0.00000000
Cu       0.00000000       0.00000000       3.61000000
Cu       0.00000000       1.80500000       5.41500000
Cu       1.80500000       0.00000000       5.41500000
Cu       1.80500000       1.80500000       3.61000000
Cu       0.00000000       0.00000000       7.22000000
Cu       0.00000000       1.80500000       9.02500000
Cu       1.80500000       0.00000000       9.02500000
Cu       1.80500000       1.80500000       7.22000000
Cu       0.00000000       3.61000000       0.00000000
Cu       0.00000000       5.41500000       1.80500000
Cu       1.80500000       3.61000000       1.80500000
Cu       1.80500000       5.41500000       0.00000000
Cu       0.00000000       3.61000000       3.61000000
Cu       0.00000000       5.41500000       5.41500000
Cu       1.80500000       3.61000000       5.41500000
Cu       1.80500000       5.41500000       3.61000000
Cu       0.00000000       3.61000000       7.22000000
Cu       0.00000000       5.41500000       9.02500000
Cu       1.80500000       3.61000000       9.02500000
Cu       1.80500000       5.41500000       7.22000000
Cu       0.00000000       7.22000000       0.00000000
Cu       0.00000000       9.02500000       1.80500000
Cu       1.80500000       7.22000000       1.80500000
Cu       1.80500000       9.02500000       0.00000000
Cu       0.00000000       7.22000000       3.61000000
Cu       0.00000000       9.02500000       5.41500000
Cu       1.80500000       7.22000000       5.41500000
Cu       1.80500000       9.02500000       3.61000000
Cu       0.00000000       7.22000000       7.22000000
Cu       0.00000000       9.02500000       9.02500000
Cu       1.80500000       7.22000000       9.02500000
Cu       1.80500000       9.02500000       7.22000000
Cu       3.61000000       0.00000000       0.00000000
Cu       3.61000000       1.80500000       1.80500000
Cu       5.41500000       0.00000000       1.80500000
Cu       5.41500000       1.80500000       0.00000000
Cu       3.61000000       0.00000000       3.61000000
Cu       3.61000000       1.80500000       5.41500000
Cu       5.41500000       0.00000000       5.41500000
Cu       5.41500000       1.80500000       3.61000000
Cu       3.61000000       0.00000000       7.22000000
Cu       3.61000000       1.80500000       9.02500000
Cu       5.41500000       0.00000000       9.02500000
Cu       5.41500000       1.80500000       7.22000000
Cu       3.61000000       3.61000000       0.00000000
Cu       3.61000000       5.41500000       1.80500000
Cu       5.41500000       3.61000000       1.80500000
Cu       5.41500000       5.41500000       0.00000000
Cu       3.61000000       3.61000000       3.61000000
Cu       3.61000000       5.41500000       5.41500000
Cu       5.41500000       3.61000000       5.41500000
Cu       5.41500000       5.41500000       3.61000000
Cu       3.61000000       3.61000000       7.22000000
Cu       3.61000000       5.41500000       9.02500000
Cu       5.41500000       3.61000000       9.02500000
Cu       5.41500000       5.41500000       7.22000000
Cu       3.61000000       7.22000000       0.00000000
Cu       3.61000000       9.02500000       1.80500000
Cu       5.41500000       7.22000000       1.80500000
Cu       5.41500000       9.02500000       0.00000000
Cu       3.61000000       7.22000000       3.61000000
Cu       3.61000000       9.02500000       5.41500000
Cu       5.41500000       7.22000000       5.41500000
Cu       5.41500000       9.02500000       3.61000000
Cu       3.61000000       7.22000000       7.22000000
Cu       3.61000000       9.02500000       9.02500000
Cu       5.41500000       7.22000000       9.02500000
Cu       5.41500000       9.02500000       7.22000000
Cu       7.22000000       0.00000000       0.00000000
Cu       7.22000000       1.80500000       1.80500000
Cu       9.02500000       0.00000000       1.80500000
Cu       9.02500000       1.80500000       0.00000000
Cu       7.22000000       0.00000000       3.61000000
Cu       7.22000000       1.80500000       5.41500000
Cu       9.02500000       0.00000000       5.41500000
Cu       9.02500000       1.80500000       3.61000000
Cu       7.22000000       0.00000000       7.22000000
Cu       7.22000000       1.80500000       9.02500000
Cu       9.02500000       0.00000000       9.02500000
Cu       9.02500000       1.80500000       7.22000000
Cu       7.22000000       3.61000000       0.00000000
Cu       7.22000000       5.41500000       1.80500000
Cu       9.02500000       3.61000000       1.80500000
Cu       9.02500000       5.41500000       0.00000000
Cu       7.22000000       3.61000000       3.61000000
Cu       7.22000000       5.41500000       5.41500000
Cu       9.02500000       3.61000000       5.41500000
Cu       9.02500000       5.41500000       3.61000000
Cu       7.22000000       3.61000000       7.22000000
Cu       7.22000000       5.41500000       9.02500000
Cu       9.02500000       3.61000000       9.02500000
Cu       9.02500000       5.41500000       7.22000000
Cu       7.22000000       7.22000000       0.00000000
Cu       7.22000000       9.02500000       1.80500000
Cu       9.02500000       7.22000000       1.80500000
Cu       9.02500000       9.02500000       0.00000000
Cu       7.22000000       7.22000000       3.61000000
Cu       7.22000000       9.02500000       5.41500000
Cu       9.02500000       7.22000000       5.41500000
Cu       9.02500000       9.02500000       3.61000000
Cu       7.22000000       7.22000000       7.22000000
Cu       7.22000000       9.02500000       9.02500000
Cu       9.02500000       7.22000000       9.02500000
Cu       9.02500000       9.02500000       7.22000000
108
Lattice="12.149999999999999 0.0 0.0 0.0 12.149999999999999 0.0 0.0 0.0 12.149999999999999" Properties=species:S:1:pos:R:3 pbc="T T T"
Al       0.00000000       0.00000000       0.00000000
Al       0.00000000       2.02500000       2.02500000
Al       2.02500000       0.00000000       2.02500000
Al       2.02500000       2.02500000       0.00000000
Al       0.00000000       0.00000000       4.05000000
Al       0.00000000       2.02500000       6.07500000
Al       2.02500000       0.00000000       6.07500000
Al       2.02500000       2.02500000       4.05000000
Al       0.00000000       0.00000000       8.10000000
Al       0.00000000       2.02500000      10.12500000
Al       2.02500000       0.00000000      10.12500000
Al       2.02500000       2.02500000       8.10000000
Al       0.00000000       4.05000000       0.00000000
Al       0.00000000       6.07500000       2.02500000
Al       2.02500000       4.05000000       2.02500000
Al       2.02500000       6.07500000       0.00000000
Al       0.00000000       4.05000000       4.05000000
Al       0.00000000       6.07500000       6.07500000
Al       2.02500000       4.05000000       6.07500000
Al       2.02500000       6.07500000       4.05000000
Al       0.00000000       4.05000000       8.10000000
Al       0.00000000       6.07500000      10.12500000
Al       2.02500000       4.05000000      10.12500000
Al       2.02500000       6.07500000       8.10000000
Al       0.00000000       8.10000000       0.00000000
Al       0.00000000      10.12500000       2.02500000
Al       2.02500000       8.10000000       2.02500000
Al       2.02500000      10.12500000       0.00000000
Al       0.00000000       8.10000000       4.05000000
Al       0.00000000      10.12500000       6.07500000
Al       2.02500000       8.10000000       6.07500000
Al       2.02500000      10.12500000       4.05000000
Al       0.00000000       8.10000000       8.10000000
Al       0.00000000      10.12500000      10.12500000
Al       2.02500000       8.10000000      10.12500000
Al       2.02500000      10.12500000       8.10000000
Al       4.05000000       0.00000000       0.00000000
Al       4.05000000       2.02500000       2.02500000
Al       6.07500000       0.00000000       2.02500000
Al       6.07500000       2.02500000       0.00000000
Al       4.05000000       0.00000000       4.05000000
Al       4.05000000       2.02500000       6.07500000
Al       6.07500000       0.00000000       6.07500000
Al       6.07500000       2.02500000       4.05000000
Al       4.05000000       0.00000000       8.10000000
Al       4.05000000       2.02500000      10.12500000
Al       6.07500000       0.00000000      10.12500000
Al       6.07500000       2.02500000       8.10000000
Al       4.05000000       4.05000000       0.00000000
Al       4.05000000       6.07500000       2.02500000
Al       6.07500000       4.05000000       2.02500000
Al       6.07500000       6.07500000       0.00000000
Al       4.05000000       4.05000000       4.05000000
Al       4.05000000       6.07500000       6.07500000
Al       6.07500000       4.05000000       6.07500000
Al       6.07500000       6.07500000       4.05000000
Al       4.05000000       4.05000000       8.10000000
Al       4.05000000       6.07500000      10.12500000
Al       6.07500000       4.05000000      10.12500000
Al       6.07500000       6.07500000       8.10000000
Al       4.05000000       8.10000000       0.00000000
Al       4.05000000      10.12500000       2.02500000
Al       6.07500000       8.10000000       2.02500000
Al       6.07500000      10.12500000       0.00000000
Al       4.05000000       8.10000000       4.05000000
Al       4.05000000      10.12500000       6.07500000
Al       6.07500000       8.10000000       6.07500000
Al       6.07500000      10.12500000       4.05000000
Al       4.05000000       8.10000000       8.10000000
Al       4.05000000      10.12500000      10.12500000
Al       6.07500000       8.10000000      10.12500000
Al       6.07500000      10.12500000       8.10000000
Al       8.10000000       0.00000000       0.00000000
Al       8.10000000       2.02500000       2.02500000
Al      10.12500000       0.00000000       2.02500000
Al      10.12500000       2.02500000       0.00000000
Al       8.10000000       0.00000000       4.05000000
Al       8.10000000       2.02500000       6.07500000
Al      10.12500000       0.00000000       6.07500000
Al      10.12500000       2.02500000       4.05000000
Al       8.10000000       0.00000000       8.10000000
Al       8.10000000       2.02500000      10.12500000
Al      10.12500000       0.00000000      10.12500000
Al      10.12500000       2.02500000       8.10000000
Al       8.10000000       4.05000000       0.00000000
Al       8.10000000       6.07500000       2.02500000
Al      10.12500000       4.05000000       2.02500000
Al      10.12500000       6.07500000       0.00000000
Al       8.10000000       4.05000000       4.05000000
Al       8.10000000       6.07500000       6.07500000
Al      10.12500000       4.05000000       6.07500000
Al      10.12500000       6.07500000       4.05000000
Al       8.10000000       4.05000000       8.10000000
Al       8.10000000       6.07500000      10.12500000
Al      10.12500000       4.05000000      10.12500000
Al      10.12500000       6.07500000       8.10000000
Al       8.10000000       8.10000000       0.00000000
Al       8.10000000      10.12500000       2.02500000
Al      10.12500000       8.10000000       2.02500000
Al      10.12500000      10.12500000       0.00000000
Al       8.10000000       8.10000000       4.05000000
Al       8.10000000      10.12500000       6.07500000
Al      10.12500000       8.10000000       6.07500000
Al      10.12500000      10.12500000       4.05000000
Al       8.10000000       8.10000000       8.10000000
Al       8.10000000      10.12500000      10.12500000
Al      10.12500000       8.10000000      10.12500000
Al      10.12500000      10.12500000       8.10000000
108
Lattice="12.24 0.0 0.0 0.0 12.24 0.0 0.0 0.0 12.24" Properties=species:S:1:pos:R:3 pbc="T T T"
Au       0.00000000       0.00000000       0.00000000
Au       0.00000000       2.04000000       2.04000000
Au       2.04000000       0.00000000       2.04000000
Au       2.04000000       2.04000000       0.00000000
Au       0.00000000       0.00000000       4.08000000
Au       0.00000000       2.04000000       6.12000000
Au       2.04000000       0.00000000       6.12000000
Au       2.04000000       2.04000000       4.08000000
Au       0.00000000       0.00000000       8.16000000
Au       0.00000000       2.04000000      10.20000000
Au       2.04000000       0.00000000      10.20000000
Au       2.04000000       2.04000000       8.16000000
Au       0.00000000       4.08000000       0.00000000
Au       0.00000000       6.12000000       2.04000000
Au       2.04000000       4.08000000       2.04000000
Au       2.04000000       6.12000000       0.00000000
Au       0.00000000       4.08000000       4.08000000
Au       0.00000000       6.12000000       6.12000000
Au       2.04000000       4.08000000       6.12000000
Au       2.04000000       6.12000000       4.08000000
Au       0.00000000       4.08000000       8.16000000
Au       0.00000000       6.12000000      10.20000000
Au       2.04000000       4.08000000      10.20000000
Au       2.04000000       6.12000000       8.16000000
Au       0.00000000       8.16000000       0.00000000
Au       0.00000000      10.20000000       2.04000000
Au       2.04000000       8.16000000       2.04000000
Au       2.04000000      10.20000000       0.00000000
Au       0.00000000       8.16000000       4.08000000
Au       0.00000000      10.20000000       6.12000000
Au       2.04000000       8.16000000       6.12000000
Au       2.04000000      10.20000000       4.08000000
Au       0.00000000       8.16000000       8.16000000
Au       0.00000000      10.20000000      10.20000000
Au       2.04000000       8.16000000      10.20000000
Au       2.04000000      10.20000000       8.16000000
Au       4.08000000       0.00000000       0.00000000
Au       4.08000000       2.04000000       2.04000000
Au       6.12000000       0.00000000       2.04000000
Au       6.12000000       2.04000000       0.00000000
Au       4.08000000       0.00000000       4.08000000
Au       4.08000000       2.04000000       6.12000000
Au       6.12000000       0.00000000       6.12000000
Au       6.12000000       2.04000000       4.08000000
Au       4.08000000       0.00000000       8.16000000
Au       4.08000000       2.04000000      10.20000000
Au       6.12000000       0.00000000      10.20000000
Au       6.12000000       2.04000000       8.16000000
Au       4.08000000       4.08000000       0.00000000
Au       4.08000000       6.12000000       2.04000000
Au       6.12000000       4.08000000       2.04000000
Au       6.12000000       6.12000000       0.00000000
Au       4.08000000       4.08000000       4.08000000
Au       4.08000000       6.12000000       6.12000000
Au       6.12000000       4.08000000       6.12000000
Au       6.12000000       6.12000000       4.08000000
Au       4.08000000       4.08000000       8.16000000
Au       4.08000000       6.12000000      10.20000000
Au       6.12000000       4.08000000      10.20000000
Au       6.12000000       6.12000000       8.16000000
Au       4.08000000       8.16000000       0.00000000
Au       4.08000000      10.20000000       2.04000000
Au       6.12000000       8.16000000       2.04000000
Au       6.12000000      10.20000000       0.00000000
Au       4.08000000       8.16000000       4.08000000
Au       4.08000000      10.20000000       6.12000000
Au       6.12000000       8.16000000       6.12000000
Au       6.12000000      10.20000000       4.08000000
Au       4.08000000       8.16000000       8.16000000
Au       4.08000000      10.20000000      10.20000000
Au       6.12000000       8.16000000      10.20000000
Au       6.12000000      10.20000000       8.16000000
Au       8.16000000       0.00000000       0.00000000
Au       8.16000000       2.04000000       2.04000000
Au      10.20000000       0.00000000       2.04000000
Au      10.20000000       2.04000000       0.00000000
Au       8.16000000       0.00000000       4.08000000
Au       8.16000000       2.04000000       6.12000000
Au      10.20000000       0.00000000       6.12000000
Au      10.20000000       2.04000000       4.08000000
Au       8.16000000       0.00000000       8.16000000
Au       8.16000000       2.04000000      10.20000000
Au      10.20000000       0.00000000      10.20000000
Au      10.20000000       2.04000000       8.16000000
Au       8.16000000       4.08000000       0.00000000
Au       8.16000000       6.12000000       2.04000000
Au      10.20000000       4.08000000       2.04000000
Au      10.20000000       6.12000000       0.00000000
Au       8.16000000       4.08000000       4.08000000
Au       8.16000000       6.12000000       6.12000000
Au      10.20000000       4.08000000       6.12000000
Au      10.20000000       6.12000000       4.08000000
Au       8.16000000       4.08000000       8.16000000
Au       8.16000000       6.12000000      10.20000000
Au      10.20000000       4.08000000      10.20000000
Au      10.20000000       6.12000000       8.16000000
Au       8.16000000       8.16000000       0.00000000
Au       8.16000000      10.20000000       2.04000000
Au      10.20000000       8.16000000       2.04000000
Au      10.20000000      10.20000000       0.00000000
Au       8.16000000       8.16000000       4.08000000
Au       8.16000000      10.20000000       6.12000000
Au      10.20000000       8.16000000       6.12000000
Au      10.20000000      10.20000000       4.08000000
Au       8.16000000       8.16000000       8.16000000
Au       8.16000000      10.20000000      10.20000000
Au      10.20000000       8.16000000      10.20000000
Au      10.20000000      10.20000000       8.16000000
108
Lattice="12.27 0.0 0.0 0.0 12.27 0.0 0.0 0.0 12.27" Properties=species:S:1:pos:R:3 pbc="T T T"
Ag       0.00000000       0.00000000       0.00000000
Ag       0.00000000       2.04500000       2.04500000
Ag       2.04500000       0.00000000       2.04500000
Ag       2.04500000       2.04500000       0.00000000
Ag       0.00000000       0.00000000       4.09000000
Ag       0.00000000       2.04500000       6.13500000
Ag       2.04500000       0.00000000       6.13500000
Ag       2.04500000       2.04500000       4.09000000
Ag       0.00000000       0.00000000       8.18000000
Ag       0.00000000       2.04500000      10.22500000
Ag       2.04500000       0.00000000      10.22500000
Ag       2.04500000       2.04500000       8.18000000
Ag       0.00000000       4.09000000       0.00000000
Ag       0.00000000       6.13500000       2.04500000
Ag       2.04500000       4.09000000       2.04500000
Ag       2.04500000       6.13500000       0.00000000
Ag       0.00000000       4.09000000       4.09000000
Ag       0.00000000       6.13500000       6.13500000
Ag       2.04500000       4.09000000       6.13500000
Ag       2.04500000       6.13500000       4.09000000
Ag       0.00000000       4.09000000       8.18000000
Ag       0.00000000       6.13500000      10.22500000
Ag       2.04500000       4.09000000      10.22500000
Ag       2.04500000       6.13500000       8.18000000
Ag       0.00000000       8.18000000       0.00000000
Ag       0.00000000      10.22500000       2.04500000
Ag       2.04500000       8.18000000       2.04500000
Ag       2.04500000      10.22500000       0.00000000
Ag       0.00000000       8.18000000       4.09000000
Ag       0.00000000      10.22500000       6.13500000
Ag       2.04500000       8.18000000       6.13500000
Ag       2.04500000      10.22500000       4.09000000
Ag       0.00000000       8.18000000       8.18000000
Ag       0.00000000      10.22500000      10.22500000
Ag       2.04500000       8.18000000      10.22500000
Ag       2.04500000      10.22500000       8.18000000
Ag       4.09000000       0.00000000       0.00000000
Ag       4.09000000       2.04500000       2.04500000
Ag       6.13500000       0.00000000       2.04500000
Ag       6.13500000       2.04500000       0.00000000
Ag       4.09000000       0.00000000       4.09000000
Ag       4.09000000       2.04500000       6.13500000
Ag       6.13500000       0.00000000       6.13500000
Ag       6.13500000       2.04500000       4.09000000
Ag       4.09000000       0.00000000       8.18000000
Ag       4.09000000       2.04500000      10.22500000
Ag       6.13500000       0.00000000      10.22500000
Ag       6.13500000       2.04500000       8.18000000
Ag       4.09000000       4.09000000       0.00000000
Ag       4.09000000       6.13500000       2.04500000
Ag       6.13500000       4.09000000       2.04500000
Ag       6.13500000       6.13500000       0.00000000
Ag       4.09000000       4.09000000       4.09000000
Ag       4.09000000       6.13500000       6.13500000
Ag       6.13500000       4.09000000       6.13500000
Ag       6.13500000       6.13500000       4.09000000
Ag       4.09000000       4.09000000       8.18000000
Ag       4.09000000       6.13500000      10.22500000
Ag       6.13500000       4.09000000      10.22500000
Ag       6.13500000       6.13500000       8.18000000
Ag       4.09000000       8.18000000       0.00000000
Ag       4.09000000      10.22500000       2.04500000
Ag       6.13500000       8.18000000       2.04500000
Ag       6.13500000      10.22500000       0.00000000
Ag       4.09000000       8.18000000       4.09000000
Ag       4.09000000      10.22500000       6.13500000
Ag       6.13500000       8.18000000       6.13500000
Ag       6.13500000      10.22500000       4.09000000
Ag       4.09000000       8.18000000       8.18000000
Ag       4.09000000      10.22500000      10.22500000
Ag       6.13500000       8.18000000      10.22500000
Ag       6.13500000      10.22500000       8.18000000
Ag       8.18000000       0.00000000       0.00000000
Ag       8.18000000       2.04500000       2.04500000
Ag      10.22500000       0.00000000       2.04500000
Ag      10.22500000       2.04500000       0.00000000
Ag       8.18000000       0.00000000       4.09000000
Ag       8.18000000       2.04500000       6.13500000
Ag      10.22500000       0.00000000       6.13500000
Ag      10.22500000       2.04500000       4.09000000
Ag       8.18000000       0.00000000       8.18000000
Ag       8.18000000       2.04500000      10.22500000
Ag      10.22500000       0.00000000      10.22500000
Ag      10.22500000       2.04500000       8.18000000
Ag       8.18000000       4.09000000       0.00000000
Ag       8.18000000       6.13500000       2.04500000
Ag      10.22500000       4.09000000       2.04500000
Ag      10.22500000       6.13500000       0.00000000
Ag       8.18000000       4.09000000       4.09000000
Ag       8.18000000       6.13500000       6.13500000
Ag      10.22500000       4.09000000       6.13500000
Ag      10.22500000       6.13500000       4.09000000
Ag       8.18000000       4.09000000       8.18000000
Ag       8.18000000       6.13500000      10.22500000
Ag      10.22500000       4.09000000      10.22500000
Ag      10.22500000       6.13500000       8.18000000
Ag       8.18000000       8.18000000       0.00000000
Ag       8.18000000      10.22500000       2.04500000
Ag      10.22500000       8.18000000       2.04500000
Ag      10.22500000      10.22500000       0.00000000
Ag       8.18000000       8.18000000       4.09000000
Ag       8.18000000      10.22500000       6.13500000
Ag      10.22500000       8.18000000       6.13500000
Ag      10.22500000      10.22500000       4.09000000
Ag       8.18000000       8.18000000       8.18000000
Ag       8.18000000      10.22500000      10.22500000
Ag      10.22500000       8.18000000      10.22500000
Ag      10.22500000      10.22500000       8.18000000
108
Lattice="10.56 0.0 0.0 0.0 10.56 0.0 0.0 0.0 10.56" Properties=species:S:1:pos:R:3:initial_magmoms:R:1 pbc="T T T"
Ni       0.00000000       0.00000000       0.00000000       0.60000000
Ni       0.00000000       1.76000000       1.76000000       0.60000000
Ni       1.76000000       0.00000000       1.76000000       0.60000000
Ni       1.76000000       1.76000000       0.00000000       0.60000000
Ni       0.00000000       0.00000000       3.52000000       0.60000000
Ni       0.00000000       1.76000000       5.28000000       0.60000000
Ni       1.76000000       0.00000000       5.28000000       0.60000000
Ni       1.76000000       1.76000000       3.52000000       0.60000000
Ni       0.00000000       0.00000000       7.04000000       0.60000000
Ni       0.00000000       1.76000000       8.80000000       0.60000000
Ni       1.76000000       0.00000000       8.80000000       0.60000000
Ni       1.76000000       1.76000000       7.04000000       0.60000000
Ni       0.00000000       3.52000000       0.00000000       0.60000000
Ni       0.00000000       5.28000000       1.76000000       0.60000000
Ni       1.76000000       3.52000000       1.76000000       0.60000000
Ni       1.76000000       5.28000000       0.00000000       0.60000000
Ni       0.00000000       3.52000000       3.52000000       0.60000000
Ni       0.00000000       5.28000000       5.28000000       0.60000000
Ni       1.76000000       3.52000000       5.28000000       0.60000000
Ni       1.76000000       5.28000000       3.52000000       0.60000000
Ni       0.00000000       3.52000000       7.04000000       0.60000000
Ni       0.00000000       5.28000000       8.80000000       0.60000000
Ni       1.76000000       3.52000000       8.80000000       0.60000000
Ni       1.76000000       5.28000000       7.04000000       0.60000000
Ni       0.00000000       7.04000000       0.00000000       0.60000000
Ni       0.00000000       8.80000000       1.76000000       0.60000000
Ni       1.76000000       7.04000000       1.76000000       0.60000000
Ni       1.76000000       8.80000000       0.00000000       0.60000000
Ni       0.00000000       7.04000000       3.52000000       0.60000000
Ni       0.00000000       8.80000000       5.28000000       0.60000000
Ni       1.76000000       7.04000000       5.28000000       0.60000000
Ni       1.76000000       8.80000000       3.52000000       0.60000000
Ni       0.00000000       7.04000000       7.04000000       0.60000000
Ni       0.00000000       8.80000000       8.80000000       0.60000000
Ni       1.76000000       7.04000000       8.80000000       0.60000000
Ni       1.76000000       8.80000000       7.04000000       0.60000000
Ni       3.52000000       0.00000000       0.00000000       0.60000000
Ni       3.52000000       1.76000000       1.76000000       0.60000000
Ni       5.28000000       0.00000000       1.76000000       0.60000000
Ni       5.28000000       1.76000000       0.00000000       0.60000000
Ni       3.52000000       0.00000000       3.52000000       0.60000000
Ni       3.52000000       1.76000000       5.28000000       0.60000000
Ni       5.28000000       0.00000000       5.28000000       0.60000000
Ni       5.28000000       1.76000000       3.52000000       0.60000000
Ni       3.52000000       0.00000000       7.04000000       0.60000000
Ni       3.52000000       1.76000000       8.80000000       0.60000000
Ni       5.28000000       0.00000000       8.80000000       0.60000000
Ni       5.28000000       1.76000000       7.04000000       0.60000000
Ni       3.52000000       3.52000000       0.00000000       0.60000000
Ni       3.52000000       5.28000000       1.76000000       0.60000000
Ni       5.28000000       3.52000000       1.76000000       0.60000000
Ni       5.28000000       5.28000000       0.00000000       0.60000000
Ni       3.52000000       3.52000000       3.52000000       0.60000000
Ni       3.52000000       5.28000000       5.28000000       0.60000000
Ni       5.28000000       3.52000000       5.28000000       0.60000000
Ni       5.28000000       5.28000000       3.52000000       0.60000000
Ni       3.52000000       3.52000000       7.04000000       0.60000000
Ni       3.52000000       5.28000000       8.80000000       0.60000000
Ni       5.28000000       3.52000000       8.80000000       0.60000000
Ni       5.28000000       5.28000000       7.04000000       0.60000000
Ni       3.52000000       7.04000000       0.00000000       0.60000000
Ni       3.52000000       8.80000000       1.76000000       0.60000000
Ni       5.28000000       7.04000000       1.76000000       0.60000000
Ni       5.28000000       8.80000000       0.00000000       0.60000000
Ni       3.52000000       7.04000000       3.52000000       0.60000000
Ni       3.52000000       8.80000000       5.28000000       0.60000000
Ni       5.28000000       7.04000000       5.28000000       0.60000000
Ni       5.28000000       8.80000000       3.52000000       0.60000000
Ni       3.52000000       7.04000000       7.04000000       0.60000000
Ni       3.52000000       8.80000000       8.80000000       0.60000000
Ni       5.28000000       7.04000000       8.80000000       0.60000000
Ni       5.28000000       8.80000000       7.04000000       0.60000000
Ni       7.04000000       0.00000000       0.00000000       0.60000000
Ni       7.04000000       1.76000000       1.76000000       0.60000000
Ni       8.80000000       0.00000000       1.76000000       0.60000000
Ni       8.80000000       1.76000000       0.00000000       0.60000000
Ni       7.04000000       0.00000000       3.52000000       0.60000000
Ni       7.04000000       1.76000000       5.28000000       0.60000000
Ni       8.80000000       0.00000000       5.28000000       0.60000000
Ni       8.80000000       1.76000000       3.52000000       0.60000000
Ni       7.04000000       0.00000000       7.04000000       0.60000000
Ni       7.04000000       1.76000000       8.80000000       0.60000000
Ni       8.80000000       0.00000000       8.80000000       0.60000000
Ni       8.80000000       1.76000000       7.04000000       0.60000000
Ni       7.04000000       3.52000000       0.00000000       0.60000000
Ni       7.04000000       5.28000000       1.76000000       0.60000000
Ni       8.80000000       3.52000000       1.76000000       0.60000000
Ni       8.80000000       5.28000000       0.00000000       0.60000000
Ni       7.04000000       3.52000000       3.52000000       0.60000000
Ni       7.04000000       5.28000000       5.28000000       0.60000000
Ni       8.80000000       3.52000000       5.28000000       0.60000000
Ni       8.80000000       5.28000000       3.52000000       0.60000000
Ni       7.04000000       3.52000000       7.04000000       0.60000000
Ni       7.04000000       5.28000000       8.80000000       0.60000000
Ni       8.80000000       3.52000000       8.80000000       0.60000000
Ni       8.80000000       5.28000000       7.04000000       0.60000000
Ni       7.04000000       7.04000000       0.00000000       0.60000000
Ni       7.04000000       8.80000000       1.76000000       0.60000000
Ni       8.80000000       7.04000000       1.76000000       0.60000000
Ni       8.80000000       8.80000000       0.00000000       0.60000000
Ni       7.04000000       7.04000000       3.52000000       0.60000000
Ni       7.04000000       8.80000000       5.28000000       0.60000000
Ni       8.80000000       7.04000000       5.28000000       0.60000000
Ni       8.80000000       8.80000000       3.52000000       0.60000000
Ni       7.04000000       7.04000000       7.04000000       0.60000000
Ni       7.04000000       8.80000000       8.80000000       0.60000000
Ni       8.80000000       7.04000000       8.80000000       0.60000000
Ni       8.80000000       8.80000000       7.04000000       0.60000000
108
Lattice="11.76 0.0 0.0 0.0 11.76 0.0 0.0 0.0 11.76" Properties=species:S:1:pos:R:3 pbc="T T T"
Pt       0.00000000       0.00000000       0.00000000
Pt       0.00000000       1.96000000       1.96000000
Pt       1.96000000       0.00000000       1.96000000
Pt       1.96000000       1.96000000       0.00000000
Pt       0.00000000       0.00000000       3.92000000
Pt       0.00000000       1.96000000       5.88000000
Pt       1.96000000       0.00000000       5.88000000
Pt       1.96000000       1.96000000       3.92000000
Pt       0.00000000       0.00000000       7.84000000
Pt       0.00000000       1.96000000       9.80000000
Pt       1.96000000       0.00000000       9.80000000
Pt       1.96000000       1.96000000       7.84000000
Pt       0.00000000       3.92000000       0.00000000
Pt       0.00000000       5.88000000       1.96000000
Pt       1.96000000       3.92000000       1.96000000
Pt       1.96000000       5.88000000       0.00000000
Pt       0.00000000       3.92000000       3.92000000
Pt       0.00000000       5.88000000       5.88000000
Pt       1.96000000       3.92000000       5.88000000
Pt       1.96000000       5.88000000       3.92000000
Pt       0.00000000       3.92000000       7.84000000
Pt       0.00000000       5.88000000       9.80000000
Pt       1.96000000       3.92000000       9.80000000
Pt       1.96000000       5.88000000       7.84000000
Pt       0.00000000       7.84000000       0.00000000
Pt       0.00000000       9.80000000       1.96000000
Pt       1.96000000       7.84000000       1.96000000
Pt       1.96000000       9.80000000       0.00000000
Pt       0.00000000       7.84000000       3.92000000
Pt       0.00000000       9.80000000       5.88000000
Pt       1.96000000       7.84000000       5.88000000
Pt       1.96000000       9.80000000       3.92000000
Pt       0.00000000       7.84000000       7.84000000
Pt       0.00000000       9.80000000       9.80000000
Pt       1.96000000       7.84000000       9.80000000
Pt       1.96000000       9.80000000       7.84000000
Pt       3.92000000       0.00000000       0.00000000
Pt       3.92000000       1.96000000       1.96000000
Pt       5.88000000       0.00000000       1.96000000
Pt       5.88000000       1.96000000       0.00000000
Pt       3.92000000       0.00000000       3.92000000
Pt       3.92000000       1.96000000       5.88000000
Pt       5.88000000       0.00000000       5.88000000
Pt       5.88000000       1.96000000       3.92000000
Pt       3.92000000       0.00000000       7.84000000
Pt       3.92000000       1.96000000       9.80000000
Pt       5.88000000       0.00000000       9.80000000
Pt       5.88000000       1.96000000       7.84000000
Pt       3.92000000       3.92000000       0.00000000
Pt       3.92000000       5.88000000       1.96000000
Pt       5.88000000       3.92000000       1.96000000
Pt       5.88000000       5.88000000       0.00000000
Pt       3.92000000       3.92000000       3.92000000
Pt       3.92000000       5.88000000       5.88000000
Pt       5.88000000       3.92000000       5.88000000
Pt       5.88000000       5.88000000       3.92000000
Pt       3.92000000       3.92000000       7.84000000
Pt       3.92000000       5.88000000       9.80000000
Pt       5.88000000       3.92000000       9.80000000
Pt       5.88000000       5.88000000       7.84000000
Pt       3.92000000       7.84000000       0.00000000
Pt       3.92000000       9.80000000       1.96000000
Pt       5.88000000       7.84000000       1.96000000
Pt       5.88000000       9.80000000       0.00000000
Pt       3.92000000       7.84000000       3.92000000
Pt       3.92000000       9.80000000       5.88000000
Pt       5.88000000       7.84000000       5.88000000
Pt       5.88000000       9.80000000       3.92000000
Pt       3.92000000       7.84000000       7.84000000
Pt       3.92000000       9.80000000       9.80000000
Pt       5.88000000       7.84000000       9.80000000
Pt       5.88000000       9.80000000       7.84000000
Pt       7.84000000       0.00000000       0.00000000
Pt       7.84000000       1.96000000       1.96000000
Pt       9.80000000       0.00000000       1.96000000
Pt       9.80000000       1.96000000       0.00000000
Pt       7.84000000       0.00000000       3.92000000
Pt       7.84000000       1.96000000       5.88000000
Pt       9.80000000       0.00000000       5.88000000
Pt       9.80000000       1.96000000       3.92000000
Pt       7.84000000       0.00000000       7.84000000
Pt       7.84000000       1.96000000       9.80000000
Pt       9.80000000       0.00000000       9.80000000
Pt       9.80000000       1.96000000       7.84000000
Pt       7.84000000       3.92000000       0.00000000
Pt       7.84000000       5.88000000       1.96000000
Pt       9.80000000       3.92000000       1.96000000
Pt       9.80000000       5.88000000       0.00000000
Pt       7.84000000       3.92000000       3.92000000
Pt       7.84000000       5.88000000       5.88000000
Pt       9.80000000       3.92000000       5.88000000
Pt       9.80000000       5.88000000       3.92000000
Pt       7.84000000       3.92000000       7.84000000
Pt       7.84000000       5.88000000       9.80000000
Pt       9.80000000       3.92000000       9.80000000
Pt       9.80000000       5.88000000       7.84000000
Pt       7.84000000       7.84000000       0.00000000
Pt       7.84000000       9.80000000       1.96000000
Pt       9.80000000       7.84000000       1.96000000
Pt       9.80000000       9.80000000       0.00000000
Pt       7.84000000       7.84000000       3.92000000
Pt       7.84000000       9.80000000       5.88000000
Pt       9.80000000       7.84000000       5.88000000
Pt       9.80000000       9.80000000       3.92000000
Pt       7.84000000       7.84000000       7.84000000
Pt       7.84000000       9.80000000       9.80000000
Pt       9.80000000       7.84000000       9.80000000
Pt       9.80000000       9.80000000       7.84000000
108
Lattice="11.67 0.0 0.0 0.0 11.67 0.0 0.0 0.0 11.67" Properties=species:S:1:pos:R:3 pbc="T T T"
Pd       0.00000000       0.00000000       0.00000000
Pd       0.00000000       1.94500000       1.94500000
Pd       1.94500000       0.00000000       1.94500000
Pd       1.94500000       1.94500000       0.00000000
Pd       0.00000000       0.00000000       3.89000000
Pd       0.00000000       1.94500000       5.83500000
Pd       1.94500000       0.00000000       5.83500000
Pd       1.94500000       1.94500000       3.89000000
Pd       0.00000000       0.00000000       7.78000000
Pd       0.00000000       1.94500000       9.72500000
Pd       1.94500000       0.00000000       9.72500000
Pd       1.94500000       1.94500000       7.78000000
Pd       0.00000000       3.89000000       0.00000000
Pd       0.00000000       5.83500000       1.94500000
Pd       1.94500000       3.89000000       1.94500000
Pd       1.94500000       5.83500000       0.00000000
Pd       0.00000000       3.89000000       3.89000000
Pd       0.00000000       5.83500000       5.83500000
Pd       1.94500000       3.89000000       5.83500000
Pd       1.94500000       5.83500000       3.89000000
Pd       0.00000000       3.89000000       7.78000000
Pd       0.00000000       5.83500000       9.72500000
Pd       1.94500000       3.89000000       9.72500000
Pd       1.94500000       5.83500000       7.78000000
Pd       0.00000000       7.78000000       0.00000000
Pd       0.00000000       9.72500000       1.94500000
Pd       1.94500000       7.78000000       1.94500000
Pd       1.94500000       9.72500000       0.00000000
Pd       0.00000000       7.78000000       3.89000000
Pd       0.00000000       9.72500000       5.83500000
Pd       1.94500000       7.78000000       5.83500000
Pd       1.94500000       9.72500000       3.89000000
Pd       0.00000000       7.78000000       7.78000000
Pd       0.00000000       9.72500000       9.72500000
Pd       1.94500000       7.78000000       9.72500000
Pd       1.94500000       9.72500000       7.78000000
Pd       3.89000000       0.00000000       0.00000000
Pd       3.89000000       1.94500000       1.94500000
Pd       5.83500000       0.00000000       1.94500000
Pd       5.83500000       1.94500000       0.00000000
Pd       3.89000000       0.00000000       3.89000000
Pd       3.89000000       1.94500000       5.83500000
Pd       5.83500000       0.00000000       5.83500000
Pd       5.83500000       1.94500000       3.89000000
Pd       3.89000000       0.00000000       7.78000000
Pd       3.89000000       1.94500000       9.72500000
Pd       5.83500000       0.00000000       9.72500000
Pd       5.83500000       1.94500000       7.78000000
Pd       3.89000000       3.89000000       0.00000000
Pd       3.89000000       5.83500000       1.94500000
Pd       5.83500000       3.89000000       1.94500000
Pd       5.83500000       5.83500000       0.00000000
Pd       3.89000000       3.89000000       3.89000000
Pd       3.89000000       5.83500000       5.83500000
Pd       5.83500000       3.89000000       5.83500000
Pd       5.83500000       5.83500000       3.89000000
Pd       3.89000000       3.89000000       7.78000000
Pd       3.89000000       5.83500000       9.72500000
Pd       5.83500000       3.89000000       9.72500000
Pd       5.83500000       5.83500000       7.78000000
Pd       3.89000000       7.78000000       0.00000000
Pd       3.89000000       9.72500000       1.94500000
Pd       5.83500000       7.78000000       1.94500000
Pd       5.83500000       9.72500000       0.00000000
Pd       3.89000000       7.78000000       3.89000000
Pd       3.89000000       9.72500000       5.83500000
Pd       5.83500000       7.78000000       5.83500000
Pd       5.83500000       9.72500000       3.89000000
Pd       3.89000000       7.78000000       7.78000000
Pd       3.89000000       9.72500000       9.72500000
Pd       5.83500000       7.78000000       9.72500000
Pd       5.83500000       9.72500000       7.78000000
Pd       7.78000000       0.00000000       0.00000000
Pd       7.78000000       1.94500000       1.94500000
Pd       9.72500000       0.00000000       1.94500000
Pd       9.72500000       1.94500000       0.00000000
Pd       7.78000000       0.00000000       3.89000000
Pd       7.78000000       1.94500000       5.83500000
Pd       9.72500000       0.00000000       5.83500000
Pd       9.72500000       1.94500000       3.89000000
Pd       7.78000000       0.00000000       7.78000000
Pd       7.78000000       1.94500000       9.72500000
Pd       9.72500000       0.00000000       9.72500000
Pd       9.72500000       1.94500000       7.78000000
Pd       7.78000000       3.89000000       0.00000000
Pd       7.78000000       5.83500000       1.94500000
Pd       9.72500000       3.89000000       1.94500000
Pd       9.72500000       5.83500000       0.00000000
Pd       7.78000000       3.89000000       3.89000000
Pd       7.78000000       5.83500000       5.83500000
Pd       9.72500000       3.89000000       5.83500000
Pd       9.72500000       5.83500000       3.89000000
Pd       7.78000000       3.89000000       7.78000000
Pd       7.78000000       5.83500000       9.72500000
Pd       9.72500000       3.89000000       9.72500000
Pd       9.72500000       5.83500000       7.78000000
Pd       7.78000000       7.78000000       0.00000000
Pd       7.78000000       9.72500000       1.94500000
Pd       9.72500000       7.78000000       1.94500000
Pd       9.72500000       9.72500000       0.00000000
Pd       7.78000000       7.78000000       3.89000000
Pd       7.78000000       9.72500000       5.83500000
Pd       9.72500000       7.78000000       5.83500000
Pd       9.72500000       9.72500000       3.89000000
Pd       7.78000000       7.78000000       7.78000000
Pd       7.78000000       9.72500000       9.72500000
Pd       9.72500000       7.78000000       9.72500000
Pd       9.72500000       9.72500000       7.78000000
108
Lattice="14.850000000000001 0.0 0.0 0.0 14.850000000000001 0.0 0.0 0.0 14.850000000000001" Properties=species:S:1:pos:R:3 pbc="T T T"
Pb       0.00000000       0.00000000       0.00000000
Pb       0.00000000       2.47500000       2.47500000
Pb       2.47500000       0.00000000       2.47500000
Pb       2.47500000       2.47500000       0.00000000
Pb       0.00000000       0.00000000       4.95000000
Pb       0.00000000       2.47500000       7.42500000
Pb       2.47500000       0.00000000       7.42500000
Pb       2.47500000       2.47500000       4.95000000
Pb       0.00000000       0.00000000       9.90000000
Pb       0.00000000       2.47500000      12.37500000
Pb       2.47500000       0.00000000      12.37500000
Pb       2.47500000       2.47500000       9.90000000
Pb       0.00000000       4.95000000       0.00000000
Pb       0.00000000       7.42500000       2.47500000
Pb       2.47500000       4.95000000       2.47500000
Pb       2.47500000       7.42500000       0.00000000
Pb       0.00000000       4.95000000       4.95000000
Pb       0.00000000       7.42500000       7.42500000
Pb       2.47500000       4.95000000       7.42500000
Pb       2.47500000       7.42500000       4.95000000
Pb       0.00000000       4.95000000       9.90000000
Pb       0.00000000       7.42500000      12.37500000
Pb       2.47500000       4.95000000      12.37500000
Pb       2.47500000       7.42500000       9.90000000
Pb       0.00000000       9.90000000       0.00000000
Pb       0.00000000      12.37500000       2.47500000
Pb       2.47500000       9.90000000       2.47500000
Pb       2.47500000      12.37500000       0.00000000
Pb       0.00000000       9.90000000       4.95000000
Pb       0.00000000      12.37500000       7.42500000
Pb       2.47500000       9.90000000       7.42500000
Pb       2.47500000      12.37500000       4.95000000
Pb       0.00000000       9.90000000       9.90000000
Pb       0.00000000      12.37500000      12.37500000
Pb       2.47500000       9.90000000      12.37500000
Pb       2.47500000      12.37500000       9.90000000
Pb       4.95000000       0.00000000       0.00000000
Pb       4.95000000       2.47500000       2.47500000
Pb       7.42500000       0.00000000       2.47500000
Pb       7.42500000       2.47500000       0.00000000
Pb       4.95000000       0.00000000       4.95000000
Pb       4.95000000       2.47500000       7.42500000
Pb       7.42500000       0.00000000       7.42500000
Pb       7.42500000       2.47500000       4.95000000
Pb       4.95000000       0.00000000       9.90000000
Pb       4.95000000       2.47500000      12.37500000
Pb       7.42500000       0.00000000      12.37500000
Pb       7.42500000       2.47500000       9.90000000
Pb       4.95000000       4.95000000       0.00000000
Pb       4.95000000       7.42500000       2.47500000
Pb       7.42500000       4.95000000       2.47500000
Pb       7.42500000       7.42500000       0.00000000
Pb       4.95000000       4.95000000       4.95000000
Pb       4.95000000       7.42500000       7.42500000
Pb       7.42500000       4.95000000       7.42500000
Pb       7.42500000       7.42500000       4.95000000
Pb       4.95000000       4.95000000       9.90000000
Pb       4.95000000       7.42500000      12.37500000
Pb       7.42500000       4.95000000      12.37500000
Pb       7.42500000       7.42500000       9.90000000
Pb       4.95000000       9.90000000       0.00000000
Pb       4.95000000      12.37500000       2.47500000
Pb       7.42500000       9.90000000       2.47500000
Pb       7.42500000      12.37500000       0.00000000
Pb       4.95000000       9.90000000       4.95000000
Pb       4.95000000      12.37500000       7.42500000
Pb       7.42500000       9.90000000       7.42500000
Pb       7.42500000      12.37500000       4.95000000
Pb       4.95000000       9.90000000       9.90000000
Pb       4.95000000      12.37500000      12.37500000
Pb       7.42500000       9.90000000      12.37500000
Pb       7.42500000      12.37500000       9.90000000
Pb       9.90000000       0.00000000       0.00000000
Pb       9.90000000       2.47500000       2.47500000
Pb      12.37500000       0.00000000       2.47500000
Pb      12.37500000       2.47500000       0.00000000
Pb       9.90000000       0.00000000       4.95000000
Pb       9.90000000       2.47500000       7.42500000
Pb      12.37500000       0.00000000       7.42500000
Pb      12.37500000       2.47500000       4.95000000
Pb       9.90000000       0.00000000       9.90000000
Pb       9.90000000       2.47500000      12.37500000
Pb      12.37500000       0.00000000      12.37500000
Pb      12.37500000       2.47500000       9.90000000
Pb       9.90000000       4.95000000       0.00000000
Pb       9.90000000       7.42500000       2.47500000
Pb      12.37500000       4.95000000       2.47500000
Pb      12.37500000       7.42500000       0.00000000
Pb       9.90000000       4.95000000       4.95000000
Pb       9.90000000       7.42500000       7.42500000
Pb      12.37500000       4.95000000       7.42500000
Pb      12.37500000       7.42500000       4.95000000
Pb       9.90000000       4.95000000       9.90000000
Pb       9.90000000       7.42500000      12.37500000
Pb      12.37500000       4.95000000      12.37500000
Pb      12.37500000       7.42500000       9.90000000
Pb       9.90000000       9.90000000       0.00000000
Pb       9.90000000      12.37500000       2.47500000
Pb      12.37500000       9.90000000       2.47500000
Pb      12.37500000      12.37500000       0.00000000
Pb       9.90000000       9.90000000       4.95000000
Pb       9.90000000      12.37500000       7.42500000
Pb      12.37500000       9.90000000       7.42500000
Pb      12.37500000      12.37500000       4.95000000
Pb       9.90000000       9.90000000       9.90000000
Pb       9.90000000      12.37500000      12.37500000
Pb      12.37500000       9.90000000      12.37500000
Pb      12.37500000      12.37500000       9.90000000
108
Lattice="16.740000000000002 0.0 0.0 0.0 16.740000000000002 0.0 0.0 0.0 16.740000000000002" Properties=species:S:1:pos:R:3 pbc="T T T"
Ca       0.00000000       0.00000000       0.00000000
Ca       0.00000000       2.79000000       2.79000000
Ca       2.79000000       0.00000000       2.79000000
Ca       2.79000000       2.79000000       0.00000000
Ca       0.00000000       0.00000000       5.58000000
Ca       0.00000000       2.79000000       8.37000000
Ca       2.79000000       0.00000000       8.37000000
Ca       2.79000000       2.79000000       5.58000000
Ca       0.00000000       0.00000000      11.16000000
Ca       0.00000000       2.79000000      13.95000000
Ca       2.79000000       0.00000000      13.95000000
Ca       2.79000000       2.79000000      11.16000000
Ca       0.00000000       5.58000000       0.00000000
Ca       0.00000000       8.37000000       2.79000000
Ca       2.79000000       5.58000000       2.79000000
Ca       2.79000000       8.37000000       0.00000000
Ca       0.00000000       5.58000000       5.58000000
Ca       0.00000000       8.37000000       8.37000000
Ca       2.79000000       5.58000000       8.37000000
Ca       2.79000000       8.37000000       5.58000000
Ca       0.00000000       5.58000000      11.16000000
Ca       0.00000000       8.37000000      13.95000000
Ca       2.79000000       5.58000000      13.95000000
Ca       2.79000000       8.37000000      11.16000000
Ca       0.00000000      11.16000000       0.00000000
Ca       0.00000000      13.95000000       2.79000000
Ca       2.79000000      11.16000000       2.79000000
Ca       2.79000000      13.95000000       0.00000000
Ca       0.00000000      11.16000000       5.58000000
Ca       0.00000000      13.95000000       8.37000000
Ca       2.79000000      11.16000000       8.37000000
Ca       2.79000000      13.95000000       5.58000000
Ca       0.00000000      11.16000000      11.16000000
Ca       0.00000000      13.95000000      13.95000000
Ca       2.79000000      11.16000000      13.95000000
Ca       2.79000000      13.95000000      11.16000000
Ca       5.58000000       0.00000000       0.00000000
Ca       5.58000000       2.79000000       2.79000000
Ca       8.37000000       0.00000000       2.79000000
Ca       8.37000000       2.79000000       0.00000000
Ca       5.58000000       0.00000000       5.58000000
Ca       5.58000000       2.79000000       8.37000000
Ca       8.37000000       0.00000000       8.37000000
Ca       8.37000000       2.79000000       5.58000000
Ca       5.58000000       0.00000000      11.16000000
Ca       5.58000000       2.79000000      13.95000000
Ca       8.37000000       0.00000000      13.95000000
Ca       8.37000000       2.79000000      11.16000000
Ca       5.58000000       5.58000000       0.00000000
Ca       5.58000000       8.37000000       2.79000000
Ca       8.37000000       5.58000000       2.79000000
Ca       8.37000000       8.37000000       0.00000000
Ca       5.58000000       5.58000000       5.58000000
Ca       5.58000000       8.37000000       8.37000000
Ca       8.37000000       5.58000000       8.37000000
Ca       8.37000000       8.37000000       5.58000000
Ca       5.58000000       5.58000000      11.16000000
Ca       5.58000000       8.37000000      13.95000000
Ca       8.37000000       5.58000000      13.95000000
Ca       8.37000000       8.37000000      11.16000000
Ca       5.58000000      11.16000000       0.00000000
Ca       5.58000000      13.95000000       2.79000000
Ca       8.37000000      11.16000000       2.79000000
Ca       8.37000000      13.95000000       0.00000000
Ca       5.58000000      11.16000000       5.58000000
Ca       5.58000000      13.95000000       8.37000000
Ca       8.37000000      11.16000000       8.37000000
Ca       8.37000000      13.95000000       5.58000000
Ca       5.58000000      11.16000000      11.16000000
Ca       5.58000000      13.95000000      13.95000000
Ca       8.37000000      11.16000000      13.95000000
Ca       8.37000000      13.95000000      11.16000000
Ca      11.16000000       0.00000000       0.00000000
Ca      11.16000000       2.79000000       2.79000000
Ca      13.95000000       0.00000000       2.79000000
Ca      13.95000000       2.79000000       0.00000000
Ca      11.16000000       0.00000000       5.58000000
Ca      11.16000000       2.79000000       8.37000000
Ca      13.95000000       0.00000000       8.37000000
Ca      13.95000000       2.79000000       5.58000000
Ca      11.16000000       0.00000000      11.16000000
Ca      11.16000000       2.79000000      13.95000000
Ca      13.95000000       0.00000000      13.95000000
Ca      13.95000000       2.79000000      11.16000000
Ca      11.16000000       5.58000000       0.00000000
Ca      11.16000000       8.37000000       2.79000000
Ca      13.95000000       5.58000000       2.79000000
Ca      13.95000000       8.37000000       0.00000000
Ca      11.16000000       5.58000000       5.58000000
Ca      11.16000000       8.37000000       8.37000000
Ca      13.95000000       5.58000000       8.37000000
Ca      13.95000000       8.37000000       5.58000000
Ca      11.16000000       5.58000000      11.16000000
Ca      11.16000000       8.37000000      13.95000000
Ca      13.95000000       5.58000000      13.95000000
Ca      13.95000000       8.37000000      11.16000000
Ca      11.16000000      11.16000000       0.00000000
Ca      11.16000000      13.95000000       2.79000000
Ca      13.95000000      11.16000000       2.79000000
Ca      13.95000000      13.95000000       0.00000000
Ca      11.16000000      11.16000000       5.58000000
Ca      11.16000000      13.95000000       8.37000000
Ca      13.95000000      11.16000000       8.37000000
Ca      13.95000000      13.95000000       5.58000000
Ca      11.16000000      11.16000000      11.16000000
Ca      11.16000000      13.95000000      13.95000000
Ca      13.95000000      11.16000000      13.95000000
Ca      13.95000000      13.95000000      11.16000000
108
Lattice="18.240000000000002 0.0 0.0 0.0 18.240000000000002 0.0 0.0 0.0 18.240000000000002" Properties=species:S:1:pos:R:3 pbc="T T T"
Sr       0.00000000       0.00000000       0.00000000
Sr       0.00000000       3.04000000       3.04000000
Sr       3.04000000       0.00000000       3.04000000
Sr       3.04000000       3.04000000       0.00000000
Sr       0.00000000       0.00000000       6.08000000
Sr       0.00000000       3.04000000       9.12000000
Sr       3.04000000       0.00000000       9.12000000
Sr       3.04000000       3.04000000       6.08000000
Sr       0.00000000       0.00000000      12.16000000
Sr       0.00000000       3.04000000      15.20000000
Sr       3.04000000       0.00000000      15.20000000
Sr       3.04000000       3.04000000      12.16000000
Sr       0.00000000       6.08000000       0.00000000
Sr       0.00000000       9.12000000       3.04000000
Sr       3.04000000       6.08000000       3.04000000
Sr       3.04000000       9.12000000       0.00000000
Sr       0.00000000       6.08000000       6.08000000
Sr       0.00000000       9.12000000       9.12000000
Sr       3.04000000       6.08000000       9.12000000
Sr       3.04000000       9.12000000       6.08000000
Sr       0.00000000       6.08000000      12.16000000
Sr       0.00000000       9.12000000      15.20000000
Sr       3.04000000       6.08000000      15.20000000
Sr       3.04000000       9.12000000      12.16000000
Sr       0.00000000      12.16000000       0.00000000
Sr       0.00000000      15.20000000       3.04000000
Sr       3.04000000      12.16000000       3.04000000
Sr       3.04000000      15.20000000       0.00000000
Sr       0.00000000      12.16000000       6.08000000
Sr       0.00000000      15.20000000       9.12000000
Sr       3.04000000      12.16000000       9.12000000
Sr       3.04000000      15.20000000       6.08000000
Sr       0.00000000      12.16000000      12.16000000
Sr       0.00000000      15.20000000      15.20000000
Sr       3.04000000      12.16000000      15.20000000
Sr       3.04000000      15.20000000      12.16000000
Sr       6.08000000       0.00000000       0.00000000
Sr       6.08000000       3.04000000       3.04000000
Sr       9.12000000       0.00000000       3.04000000
Sr       9.12000000       3.04000000       0.00000000
Sr       6.08000000       0.00000000       6.08000000
Sr       6.08000000       3.04000000       9.12000000
Sr       9.12000000       0.00000000       9.12000000
Sr       9.12000000       3.04000000       6.08000000
Sr       6.08000000       0.00000000      12.16000000
Sr       6.08000000       3.04000000      15.20000000
Sr       9.12000000       0.00000000      15.20000000
Sr       9.12000000       3.04000000      12.16000000
Sr       6.08000000       6.08000000       0.00000000
Sr       6.08000000       9.12000000       3.04000000
Sr       9.12000000       6.08000000       3.04000000
Sr       9.12000000       9.12000000       0.00000000
Sr       6.08000000       6.08000000       6.08000000
Sr       6.08000000       9.12000000       9.12000000
Sr       9.12000000       6.08000000       9.12000000
Sr       9.12000000       9.12000000       6.08000000
Sr       6.08000000       6.08000000      12.16000000
Sr       6.08000000       9.12000000      15.20000000
Sr       9.12000000       6.08000000      15.20000000
Sr       9.12000000       9.12000000      12.16000000
Sr       6.08000000      12.16000000       0.00000000
Sr       6.08000000      15.20000000       3.04000000
Sr       9.12000000      12.16000000       3.04000000
Sr       9.12000000      15.20000000       0.00000000
Sr       6.08000000      12.16000000       6.08000000
Sr       6.08000000      15.20000000       9.12000000
Sr       9.12000000      12.16000000       9.12000000
Sr       9.12000000      15.20000000       6.08000000
Sr       6.08000000      12.16000000      12.16000000
Sr       6.08000000      15.20000000      15.20000000
Sr       9.12000000      12.16000000      15.20000000
Sr       9.12000000      15.20000000      12.16000000
Sr      12.16000000       0.00000000       0.00000000
Sr      12.16000000       3.04000000       3.04000000
Sr      15.20000000       0.00000000       3.04000000
Sr      15.20000000       3.04000000       0.00000000
Sr      12.16000000       0.00000000       6.08000000
Sr      12.16000000       3.04000000       9.12000000
Sr      15.20000000       0.00000000       9.12000000
Sr      15.20000000       3.04000000       6.08000000
Sr      12.16000000       0.00000000      12.16000000
Sr      12.16000000       3.04000000      15.20000000
Sr      15.20000000       0.00000000      15.20000000
Sr      15.20000000       3.04000000      12.16000000
Sr      12.16000000       6.08000000       0.00000000
Sr      12.16000000       9.12000000       3.04000000
Sr      15.20000000       6.08000000       3.04000000
Sr      15.20000000       9.12000000       0.00000000
Sr      12.16000000       6.08000000       6.08000000
Sr      12.16000000       9.12000000       9.12000000
Sr      15.20000000       6.08000000       9.12000000
Sr      15.20000000       9.12000000       6.08000000
Sr      12.16000000       6.08000000      12.16000000
Sr      12.16000000       9.12000000      15.20000000
Sr      15.20000000       6.08000000      15.20000000
Sr      15.20000000       9.12000000      12.16000000
Sr      12.16000000      12.16000000       0.00000000
Sr      12.16000000      15.20000000       3.04000000
Sr      15.20000000      12.16000000       3.04000000
Sr      15.20000000      15.20000000       0.00000000
Sr      12.16000000      12.16000000       6.08000000
Sr      12.16000000      15.20000000       9.12000000
Sr      15.20000000      12.16000000       9.12000000
Sr      15.20000000      15.20000000       6.08000000
Sr      12.16000000      12.16000000      12.16000000
Sr      12.16000000      15.20000000      15.20000000
Sr      15.20000000      12.16000000      15.20000000
Sr      15.20000000      15.20000000      12.16000000
