54
Lattice="8.61 0.0 0.0 0.0 8.61 0.0 0.0 0.0 8.61" Properties=species:S:1:pos:R:3:initial_magmoms:R:1 pbc="T T T"
Fe       0.00000000       0.00000000       0.00000000       2.30000000
Fe       1.43500000       1.43500000       1.43500000       2.30000000
Fe       0.00000000       0.00000000       2.87000000       2.30000000
Fe       1.43500000       1.43500000       4.30500000       2.30000000
Fe       0.00000000       0.00000000       5.74000000       2.30000000
Fe       1.43500000       1.43500000       7.17500000       2.30000000
Fe       0.00000000       2.87000000       0.00000000       2.30000000
Fe       1.43500000       4.30500000       1.43500000       2.30000000
Fe       0.00000000       2.87000000       2.87000000       2.30000000
Fe       1.43500000       4.30500000       4.30500000       2.30000000
Fe       0.00000000       2.87000000       5.74000000       2.30000000
Fe       1.43500000       4.30500000       7.17500000       2.30000000
Fe       0.00000000       5.74000000       0.00000000       2.30000000
Fe       1.43500000       7.17500000       1.43500000       2.30000000
Fe       0.00000000       5.74000000       2.87000000       2.30000000
Fe       1.43500000       7.17500000       4.30500000       2.30000000
Fe       0.00000000       5.74000000       5.74000000       2.30000000
Fe       1.43500000       7.17500000       7.17500000       2.30000000
Fe       2.87000000       0.00000000       0.00000000       2.30000000
Fe       4.30500000       1.43500000       1.43500000       2.30000000
Fe       2.87000000       0.00000000       2.87000000       2.30000000
Fe       4.30500000       1.43500000       4.30500000       2.30000000
Fe       2.87000000       0.00000000       5.74000000       2.30000000
Fe       4.30500000       1.43500000       7.17500000       2.30000000
Fe       2.87000000       2.87000000       0.00000000       2.30000000
Fe       4.30500000       4.30500000       1.43500000       2.30000000
Fe       2.87000000       2.87000000       2.87000000       2.30000000
Fe       4.30500000       4.30500000       4.30500000       2.30000000
Fe       2.87000000       2.87000000       5.74000000       2.30000000
Fe       4.30500000       4.30500000       7.17500000       2.30000000
Fe       2.87000000       5.74000000       0.00000000       2.30000000
Fe       4.30500000       7.17500000       1.43500000       2.30000000
Fe       2.87000000       5.74000000       2.87000000       2.30000000
Fe       4.30500000       7.17500000       4.30500000       2.30000000
Fe       2.87000000       5.74000000       5.74000000       2.30000000
Fe       4.30500000       7.17500000       7.17500000       2.30000000
Fe       5.74000000       0.00000000       0.00000000       2.30000000
Fe       7.17500000       1.43500000       1.43500000       2.30000000
Fe       5.74000000       0.00000000       2.87000000       2.30000000
Fe       7.17500000       1.43500000       4.30500000       2.30000000
Fe       5.74000000       0.00000000       5.74000000       2.30000000
Fe       7.17500000       1.43500000       7.17500000       2.30000000
Fe       5.74000000       2.87000000       0.00000000       2.30000000
Fe       7.17500000       4.30500000       1.43500000       2.30000000
Fe       5.74000000       2.87000000       2.87000000       2.30000000
Fe       7.17500000       4.30500000       4.30500000       2.30000000
Fe       5.74000000       2.87000000       5.74000000       2.30000000
Fe       7.17500000       4.30500000       7.17500000       2.30000000
Fe       5.74000000       5.74000000       0.00000000       2.30000000
Fe       7.17500000       7.17500000       1.43500000       2.30000000
Fe       5.74000000       5.74000000       2.87000000       2.30000000
Fe       7.17500000       7.17500000       4.30500000       2.30000000
Fe       5.74000000       5.74000000       5.74000000       2.30000000
Fe       7.17500000       7.17500000       7.17500000       2.30000000
54
Lattice="9.48 0.0 0.0 0.0 9.48 0.0 0.0 0.0 9.48" Properties=species:S:1:pos:R:3 pbc="T T T"
W        0.00000000       0.00000000       0.00000000
W        1.58000000       1.58000000       1.58000000
W        0.00000000       0.00000000       3.16000000
W        1.58000000       1.58000000       4.74000000
W        0.00000000       0.00000000       6.32000000
W        1.58000000       1.58000000       7.90000000
W        0.00000000       3.16000000       0.00000000
W        1.58000000       4.74000000       1.58000000
W        0.00000000       3.16000000       3.16000000
W        1.58000000       4.74000000       4.74000000
W        0.00000000       3.16000000       6.32000000
W        1.58000000       4.74000000       7.90000000
W        0.00000000       6.32000000       0.00000000
W        1.58000000       7.90000000       1.58000000
W        0.00000000       6.32000000       3.16000000
W        1.58000000       7.90000000       4.74000000
W        0.00000000       6.32000000       6.32000000
W        1.58000000       7.90000000       7.90000000
W        3.16000000       0.00000000       0.00000000
W        4.74000000       1.58000000       1.58000000
W        3.16000000       0.00000000       3.16000000
W        4.74000000       1.58000000       4.74000000
W        3.16000000       0.00000000       6.32000000
W        4.74000000       1.58000000       7.90000000
W        3.16000000       3.16000000       0.00000000
W        4.74000000       4.74000000       1.58000000
W        3.16000000       3.16000000       3.16000000
W        4.74000000       4.74000000       4.74000000
W        3.16000000       3.16000000       6.32000000
W        4.74000000       4.74000000       7.90000000
W        3.16000000       6.32000000       0.00000000
W        4.74000000       7.90000000       1.58000000
W        3.16000000       6.32000000       3.16000000
W        4.74000000       7.90000000       4.74000000
W        3.16000000       6.32000000       6.32000000
W        4.74000000       7.90000000       7.90000000
W        6.32000000       0.00000000       0.00000000
W        7.90000000       1.58000000       1.58000000
W        6.32000000       0.00000000       3.16000000
W        7.90000000       1.58000000       4.74000000
W        6.32000000       0.00000000       6.32000000
W        7.90000000       1.58000000       7.90000000
W        6.32000000       3.16000000       0.00000000
W        7.90000000       4.74000000       1.58000000
W        6.32000000       3.16000000       3.16000000
W        7.90000000       4.74000000       4.74000000
W        6.32000000       3.16000000       6.32000000
W        7.90000000       4.74000000       7.90000000
W        6.32000000       6.32000000       0.00000000
W        7.90000000       7.90000000       1.58000000
W        6.32000000       6.32000000       3.16000000
W        7.90000000       7.90000000       4.74000000
W        6.32000000       6.32000000       6.32000000
W        7.90000000       7.90000000       7.90000000
54
Lattice="9.45 0.0 0.0 0.0 9.45 0.0 0.0 0.0 9.45" Properties=species:S:1:pos:R:3 pbc="T T T"
Mo       0.00000000       0.00000000       0.00000000
Mo       1.57500000       1.57500000       1.57500000
Mo       0.00000000       0.00000000       3.15000000
Mo       1.57500000       1.57500000       4.72500000
Mo       0.00000000       0.00000000       6.30000000
Mo       1.57500000       1.57500000       7.87500000
Mo       0.00000000       3.15000000       0.00000000
Mo       1.57500000       4.72500000       1.57500000
Mo       0.00000000       3.15000000       3.15000000
Mo       1.57500000       4.72500000       4.72500000
Mo       0.00000000       3.15000000       6.30000000
Mo       1.57500000       4.72500000       7.87500000
Mo       0.00000000       6.30000000       0.00000000
Mo       1.57500000       7.87500000       1.57500000
Mo       0.00000000       6.30000000       3.15000000
Mo       1.57500000       7.87500000       4.72500000
Mo       0.00000000       6.30000000       6.30000000
Mo       1.57500000       7.87500000       7.87500000
Mo       3.15000000       0.00000000       0.00000000
Mo       4.72500000       1.57500000       1.57500000
Mo       3.15000000       0.00000000       3.15000000
Mo       4.72500000       1.57500000       4.72500000
Mo       3.15000000       0.00000000       6.30000000
Mo       4.72500000       1.57500000       7.87500000
Mo       3.15000000       3.15000000       0.00000000
Mo       4.72500000       4.72500000       1.57500000
Mo       3.15000000       3.15000000       3.15000000
Mo       4.72500000       4.72500000       4.72500000
Mo       3.15000000       3.15000000       6.30000000
Mo       4.72500000       4.72500000       7.87500000
Mo       3.15000000       6.30000000       0.00000000
Mo       4.72500000       7.87500000       1.57500000
Mo       3.15000000       6.30000000       3.15000000
Mo       4.72500000       7.87500000       4.72500000
Mo       3.15000000       6.30000000       6.30000000
Mo       4.72500000       7.87500000       7.87500000
Mo       6.30000000       0.00000000       0.00000000
Mo       7.87500000       1.57500000       1.57500000
Mo       6.30000000       0.00000000       3.15000000
Mo       7.87500000       1.57500000       4.72500000
Mo       6.30000000       0.00000000       6.30000000
Mo       7.87500000       1.57500000       7.87500000
Mo       6.30000000       3.15000000       0.00000000
Mo       7.87500000       4.72500000       1.57500000
Mo       6.30000000       3.15000000       3.15000000
Mo       7.87500000       4.72500000       4.72500000
Mo       6.30000000       3.15000000       6.30000000
Mo       7.87500000       4.72500000       7.87500000
Mo       6.30000000       6.30000000       0.00000000
Mo       7.87500000       7.87500000       1.57500000
Mo       6.30000000       6.30000000       3.15000000
Mo       7.87500000       7.87500000       4.72500000
Mo       6.30000000       6.30000000       6.30000000
Mo       7.87500000       7.87500000       7.87500000
54
Lattice="8.64 0.0 0.0 0.0 8.64 0.0 0.0 0.0 8.64" Properties=species:S:1:pos:R:3 pbc="T T T"
Cr       0.00000000       0.00000000       0.00000000
Cr       1.44000000       1.44000000       1.44000000
Cr       0.00000000       0.00000000       2.88000000
Cr       1.44000000       1.44000000       4.32000000
Cr       0.00000000       0.00000000       5.76000000
Cr       1.44000000       1.44000000       7.20000000
Cr       0.00000000       2.88000000       0.00000000
Cr       1.44000000       4.32000000       1.44000000
Cr       0.00000000       2.88000000       2.88000000
Cr       1.44000000       4.32000000       4.32000000
Cr       0.00000000       2.88000000       5.76000000
Cr       1.44000000       4.32000000       7.20000000
Cr       0.00000000       5.76000000       0.00000000
Cr       1.44000000       7.20000000       1.44000000
Cr       0.00000000       5.76000000       2.88000000
Cr       1.44000000       7.20000000       4.32000000
Cr       0.00000000       5.76000000       5.76000000
Cr       1.44000000       7.20000000       7.20000000
Cr       2.88000000       0.00000000       0.00000000
Cr       4.32000000       1.44000000       1.44000000
Cr       2.88000000       0.00000000       2.88000000
Cr       4.32000000       1.44000000       4.32000000
Cr       2.88000000       0.00000000       5.76000000
Cr       4.32000000       1.44000000       7.20000000
Cr       2.88000000       2.88000000       0.00000000
Cr       4.32000000       4.32000000       1.44000000
Cr       2.88000000       2.88000000       2.88000000
Cr       4.32000000       4.32000000       4.32000000
Cr       2.88000000       2.88000000       5.76000000
Cr       4.32000000       4.32000000       7.20000000
Cr       2.88000000       5.76000000       0.00000000
Cr       4.32000000       7.20000000       1.44000000
Cr       2.88000000       5.76000000       2.88000000
Cr       4.32000000       7.20000000       4.32000000
Cr       2.88000000       5.76000000       5.76000000
Cr       4.32000000       7.20000000       7.20000000
Cr       5.76000000       0.00000000       0.00000000
Cr       7.20000000       1.44000000       1.44000000
Cr       5.76000000       0.00000000       2.88000000
Cr       7.20000000       1.44000000       4.32000000
Cr       5.76000000       0.00000000       5.76000000
Cr       7.20000000       1.44000000       7.20000000
Cr       5.76000000       2.88000000       0.00000000
Cr       7.20000000       4.32000000       1.44000000
Cr       5.76000000       2.88000000       2.88000000
Cr       7.20000000       4.32000000       4.32000000
Cr       5.76000000       2.88000000       5.76000000
Cr       7.20000000       4.32000000       7.20000000
Cr       5.76000000       5.76000000       0.00000000
Cr       7.20000000       7.20000000       1.44000000
Cr       5.76000000       5.76000000       2.88000000
Cr       7.20000000       7.20000000       4.32000000
Cr       5.76000000       5.76000000       5.76000000
Cr       7.20000000       7.20000000       7.20000000
54
Lattice="9.09 0.0 0.0 0.0 9.09 0.0 0.0 0.0 9.09" Properties=species:S:1:pos:R:3 pbc="T T T"
V        0.00000000       0.00000000       0.00000000
V        1.51500000       1.51500000       1.51500000
V        0.00000000       0.00000000       3.03000000
V        1.51500000       1.51500000       4.54500000
V        0.00000000       0.00000000       6.06000000
V        1.51500000       1.51500000       7.57500000
V        0.00000000       3.03000000       0.00000000
V        1.51500000       4.54500000       1.51500000
V        0.00000000       3.03000000       3.03000000
V        1.51500000       4.54500000       4.54500000
V        0.00000000       3.03000000       6.06000000
V        1.51500000       4.54500000       7.57500000
V        0.00000000       6.06000000       0.00000000
V        1.51500000       7.57500000       1.51500000
V        0.00000000       6.06000000       3.03000000
V        1.51500000       7.57500000       4.54500000
V        0.00000000       6.06000000       6.06000000
V        1.51500000       7.57500000       7.57500000
V        3.03000000       0.00000000       0.00000000
V        4.54500000       1.51500000       1.51500000
V        3.03000000       0.00000000       3.03000000
V        4.54500000       1.51500000       4.54500000
V        3.03000000       0.00000000       6.06000000
V        4.54500000       1.51500000       7.57500000
V        3.03000000       3.03000000       0.00000000
V        4.54500000       4.54500000       1.51500000
V        3.03000000       3.03000000       3.03000000
V        4.54500000       4.54500000       4.54500000
V        3.03000000       3.03000000       6.06000000
V        4.54500000       4.54500000       7.57500000
V        3.03000000       6.06000000       0.00000000
V        4.54500000       7.57500000       1.51500000
V        3.03000000       6.06000000       3.03000000
V        4.54500000       7.57500000       4.54500000
V        3.03000000       6.06000000       6.06000000
V        4.54500000       7.57500000       7.57500000
V        6.06000000       0.00000000       0.00000000
V        7.57500000       1.51500000       1.51500000
V        6.06000000       0.00000000       3.03000000
V        7.57500000       1.51500000       4.54500000
V        6.06000000       0.00000000       6.06000000
V        7.57500000       1.51500000       7.57500000
V        6.06000000       3.03000000       0.00000000
V        7.57500000       4.54500000       1.51500000
V        6.06000000       3.03000000       3.03000000
V        7.57500000       4.54500000       4.54500000
V        6.06000000       3.03000000       6.06000000
V        7.57500000       4.54500000       7.57500000
V        6.06000000       6.06000000       0.00000000
V        7.57500000       7.57500000       1.51500000
V        6.06000000       6.06000000       3.03000000
V        7.57500000       7.57500000       4.54500000
V        6.06000000       6.06000000       6.06000000
V        7.57500000       7.57500000       7.57500000
54
Lattice="9.899999999999999 0.0 0.0 0.0 9.899999999999999 0.0 0.0 0.0 9.899999999999999" Properties=species:S:1:pos:R:3 pbc="T T T"
Nb       0.00000000       0.00000000       0.00000000
Nb       1.65000000       1.65000000       1.65000000
Nb       0.00000000       0.00000000       3.30000000
Nb       1.65000000       1.65000000       4.95000000
Nb       0.00000000       0.00000000       6.60000000
Nb       1.65000000       1.65000000       8.25000000
Nb       0.00000000       3.30000000       0.00000000
Nb       1.65000000       4.95000000       1.65000000
Nb       0.00000000       3.30000000       3.30000000
Nb       1.65000000       4.95000000       4.95000000
Nb       0.00000000       3.30000000       6.60000000
Nb       1.65000000       4.95000000       8.25000000
Nb       0.00000000       6.60000000       0.00000000
Nb       1.65000000       8.25000000       1.65000000
Nb       0.00000000       6.60000000       3.30000000
Nb       1.65000000       8.25000000       4.95000000
Nb       0.00000000       6.60000000       6.60000000
Nb       1.65000000       8.25000000       8.25000000
Nb       3.30000000       0.00000000       0.00000000
Nb       4.95000000       1.65000000       1.65000000
Nb       3.30000000       0.00000000       3.30000000
Nb       4.95000000       1.65000000       4.95000000
Nb       3.30000000       0.00000000       6.60000000
Nb       4.95000000       1.65000000       8.25000000
Nb       3.30000000       3.30000000       0.00000000
Nb       4.95000000       4.95000000       1.65000000
Nb       3.30000000       3.30000000       3.30000000
Nb       4.95000000       4.95000000       4.95000000
Nb       3.30000000       3.30000000       6.60000000
Nb       4.95000000       4.95000000       8.25000000
Nb       3.30000000       6.60000000       0.00000000
Nb       4.95000000       8.25000000       1.65000000
Nb       3.30000000       6.60000000       3.30000000
Nb       4.95000000       8.25000000       4.95000000
Nb       3.30000000       6.60000000       6.60000000
Nb       4.95000000       8.25000000       8.25000000
Nb       6.60000000       0.00000000       0.00000000
Nb       8.25000000       1.65000000       1.65000000
Nb       6.60000000       0.00000000       3.30000000
Nb       8.25000000       1.65000000       4.95000000
Nb       6.60000000       0.00000000       6.60000000
Nb       8.25000000       1.65000000       8.25000000
Nb       6.60000000       3.30000000       0.00000000
Nb       8.25000000       4.95000000       1.65000000
Nb       6.60000000       3.30000000       3.30000000
Nb       8.25000000       4.95000000       4.95000000
Nb       6.60000000       3.30000000       6.60000000
Nb       8.25000000       4.95000000       8.25000000
Nb       6.60000000       6.60000000       0.00000000
Nb       8.25000000       8.25000000       1.65000000
Nb       6.60000000       6.60000000       3.30000000
Nb       8.25000000       8.25000000       4.95000000
Nb       6.60000000       6.60000000       6.60000000
Nb       8.25000000       8.25000000       8.25000000
54
Lattice="9.899999999999999 0.0 0.0 0.0 9.899999999999999 0.0 0.0 0.0 9.899999999999999" Properties=species:S:1:pos:R:3 pbc="T T T"
Ta       0.00000000       0.00000000       0.00000000
Ta       1.65000000       1.65000000       1.65000000
Ta       0.00000000       0.00000000       3.30000000
Ta       1.65000000       1.65000000       4.95000000
Ta       0.00000000       0.00000000       6.60000000
Ta       1.65000000       1.65000000       8.25000000
Ta       0.00000000       3.30000000       0.00000000
Ta       1.65000000       4.95000000       1.65000000
Ta       0.00000000       3.30000000       3.30000000
Ta       1.65000000       4.95000000       4.95000000
Ta       0.00000000       3.30000000       6.60000000
Ta       1.65000000       4.95000000       8.25000000
Ta       0.00000000       6.60000000       0.00000000
Ta       1.65000000       8.25000000       1.65000000
Ta       0.00000000       6.60000000       3.30000000
Ta       1.65000000       8.25000000       4.95000000
Ta       0.00000000       6.60000000       6.60000000
Ta       1.65000000       8.25000000       8.25000000
Ta       3.30000000       0.00000000       0.00000000
Ta       4.95000000       1.65000000       1.65000000
Ta       3.30000000       0.00000000       3.30000000
Ta       4.95000000       1.65000000       4.95000000
Ta       3.30000000       0.00000000       6.60000000
Ta       4.95000000       1.65000000       8.25000000
Ta       3.30000000       3.30000000       0.00000000
Ta       4.95000000       4.95000000       1.65000000
Ta       3.30000000       3.30000000       3.30000000
Ta       4.95000000       4.95000000       4.95000000
Ta       3.30000000       3.30000000       6.60000000
Ta       4.95000000       4.95000000       8.25000000
Ta       3.30000000       6.60000000       0.00000000
Ta       4.95000000       8.25000000       1.65000000
Ta       3.30000000       6.60000000       3.30000000
Ta       4.95000000       8.25000000       4.95000000
Ta       3.30000000       6.60000000       6.60000000
Ta       4.95000000       8.25000000       8.25000000
Ta       6.60000000       0.00000000       0.00000000
Ta       8.25000000       1.65000000       1.65000000
Ta       6.60000000       0.00000000       3.30000000
Ta       8.25000000       1.65000000       4.95000000
Ta       6.60000000       0.00000000       6.60000000
Ta       8.25000000       1.65000000       8.25000000
Ta       6.60000000       3.30000000       0.00000000
Ta       8.25000000       4.95000000       1.65000000
Ta       6.60000000       3.30000000       3.30000000
Ta       8.25000000       4.95000000       4.95000000
Ta       6.60000000       3.30000000       6.60000000
Ta       8.25000000       4.95000000       8.25000000
Ta       6.60000000       6.60000000       0.00000000
Ta       8.25000000       8.25000000       1.65000000
Ta       6.60000000       6.60000000       3.30000000
Ta       8.25000000       8.25000000       4.95000000
Ta       6.60000000       6.60000000       6.60000000
Ta       8.25000000       8.25000000       8.25000000
54
Lattice="15.690000000000001 0.0 0.0 0.0 15.690000000000001 0.0 0.0 0.0 15.690000000000001" Properties=species:S:1:pos:R:3 pbc="T T T"
K        0.00000000       0.00000000       0.00000000
K        2.61500000       2.61500000       2.61500000
K        0.00000000       0.00000000       5.23000000
K        2.61500000       2.61500000       7.84500000
K        0.00000000       0.00000000      10.46000000
K        2.61500000       2.61500000      13.07500000
K        0.00000000       5.23000000       0.00000000
K        2.61500000       7.84500000       2.61500000
K        0.00000000       5.23000000       5.23000000
K        2.61500000       7.84500000       7.84500000
K        0.00000000       5.23000000      10.46000000
K        2.61500000       7.84500000      13.07500000
K        0.00000000      10.46000000       0.00000000
K        2.61500000      13.07500000       2.61500000
K        0.00000000      10.46000000       5.23000000
K        2.61500000      13.07500000       7.84500000
K        0.00000000      10.46000000      10.46000000
K        2.61500000      13.07500000      13.07500000
K        5.23000000       0.00000000       0.00000000
K        7.84500000       2.61500000       2.61500000
K        5.23000000       0.00000000       5.23000000
K        7.84500000       2.61500000       7.84500000
K        5.23000000       0.00000000      10.46000000
K        7.84500000       2.61500000      13.07500000
K        5.23000000       5.23000000       0.00000000
K        7.84500000       7.84500000       2.61500000
K        5.23000000       5.23000000       5.23000000
K        7.84500000       7.84500000       7.84500000
K        5.23000000       5.23000000      10.46000000
K        7.84500000       7.84500000      13.07500000
K        5.23000000      10.46000000       0.00000000
K        7.84500000      13.07500000       2.61500000
K        5.23000000      10.46000000       5.23000000
K        7.84500000      13.07500000       7.84500000
K        5.23000000      10.46000000      10.46000000
K        7.84500000      13.07500000      13.07500000
K       10.46000000       0.00000000       0.00000000
K       13.07500000       2.61500000       2.61500000
K       10.46000000       0.00000000       5.23000000
K       13.07500000       2.61500000       7.84500000
K       10.46000000       0.00000000      10.46000000
K       13.07500000       2.61500000      13.07500000
K       10.46000000       5.23000000       0.00000000
K       13.07500000       7.84500000       2.61500000
K       10.46000000       5.23000000       5.23000000
K       13.07500000       7.84500000       7.84500000
K       10.46000000       5.23000000      10.46000000
K       13.07500000       7.84500000      13.07500000
K       10.46000000      10.46000000       0.00000000
K       13.07500000      13.07500000       2.61500000
K       10.46000000      10.46000000       5.23000000
K       13.07500000      13.07500000       7.84500000
K       10.46000000      10.46000000      10.46000000
K       13.07500000      13.07500000      13.07500000
54
Lattice="12.870000000000001 0.0 0.0 0.0 12.870000000000001 0.0 0.0 0.0 12.870000000000001" Properties=species:S:1:pos:R:3 pbc="T T T"
Na       0.00000000       0.00000000       0.00000000
Na       2.14500000       2.14500000       2.14500000
Na       0.00000000       0.00000000       4.29000000
Na       2.14500000       2.14500000       6.43500000
Na       0.00000000       0.00000000       8.58000000
Na       2.14500000       2.14500000      10.72500000
Na       0.00000000       4.29000000       0.00000000
Na       2.14500000       6.43500000       2.14500000
Na       0.00000000       4.29000000       4.29000000
Na       2.14500000       6.43500000       6.43500000
Na       0.00000000       4.29000000       8.58000000
Na       2.14500000       6.43500000      10.72500000
Na       0.00000000       8.58000000       0.00000000
Na       2.14500000      10.72500000       2.14500000
Na       0.00000000       8.58000000       4.29000000
Na       2.14500000      10.72500000       6.43500000
Na       0.00000000       8.58000000       8.58000000
Na       2.14500000      10.72500000      10.72500000
Na       4.29000000       0.00000000       0.00000000
Na       6.43500000       2.14500000       2.14500000
Na       4.29000000       0.00000000       4.29000000
Na       6.43500000       2.14500000       6.43500000
Na       4.29000000       0.00000000       8.58000000
Na       6.43500000       2.14500000      10.72500000
Na       4.29000000       4.29000000       0.00000000
Na       6.43500000       6.43500000       2.14500000
Na       4.29000000       4.29000000       4.29000000
Na       6.43500000       6.43500000       6.43500000
Na       4.29000000       4.29000000       8.58000000
Na       6.43500000       6.43500000      10.72500000
Na       4.29000000       8.58000000       0.00000000
Na       6.43500000      10.72500000       2.14500000
Na       4.29000000       8.58000000       4.29000000
Na       6.43500000      10.72500000       6.43500000
Na       4.29000000       8.58000000       8.58000000
Na       6.43500000      10.72500000      10.72500000
Na       8.58000000       0.00000000       0.00000000
Na      10.72500000       2.14500000       2.14500000
Na       8.58000000       0.00000000       4.29000000
Na      10.72500000       2.14500000       6.43500000
Na       8.58000000       0.00000000       8.58000000
Na      10.72500000       2.14500000      10.72500000
Na       8.58000000       4.29000000       0.00000000
Na      10.72500000       6.43500000       2.14500000
Na       8.58000000       4.29000000       4.29000000
Na      10.72500000       6.43500000       6.43500000
Na       8.58000000       4.29000000       8.58000000
Na      10.72500000       6.43500000      10.72500000
Na       8.58000000       8.58000000       0.00000000
Na      10.72500000      10.72500000       2.14500000
Na       8.58000000       8.58000000       4.29000000
Na      10.72500000      10.72500000       6.43500000
Na       8.58000000       8.58000000       8.58000000
Na      10.72500000      10.72500000      10.72500000
54
Lattice="10.47 0.0 0.0 0.0 10.47 0.0 0.0 0.0 10.47" Properties=species:S:1:pos:R:3 pbc="T T T"
Li       0.00000000       0.00000000       0.00000000
Li       1.74500000       1.74500000       1.74500000
Li       0.00000000       0.00000000       3.49000000
Li       1.74500000       1.74500000       5.23500000
Li       0.00000000       0.00000000       6.98000000
Li       1.74500000       1.74500000       8.72500000
Li       0.00000000       3.49000000       0.00000000
Li       1.74500000       5.23500000       1.74500000
Li       0.00000000       3.49000000       3.49000000
Li       1.74500000       5.23500000       5.23500000
Li       0.00000000       3.49000000       6.98000000
Li       1.74500000       5.23500000       8.72500000
Li       0.00000000       6.98000000       0.00000000
Li       1.74500000       8.72500000       1.74500000
Li       0.00000000       6.98000000       3.49000000
Li       1.74500000       8.72500000       5.23500000
Li       0.00000000       6.98000000       6.98000000
Li       1.74500000       8.72500000       8.72500000
Li       3.49000000       0.00000000       0.00000000
Li       5.23500000       1.74500000       1.74500000
Li       3.49000000       0.00000000       3.49000000
Li       5.23500000       1.74500000       5.23500000
Li       3.49000000       0.00000000       6.98000000
Li       5.23500000       1.74500000       8.72500000
Li       3.49000000       3.49000000       0.00000000
Li       5.23500000       5.23500000       1.74500000
Li       3.49000000       3.49000000       3.49000000
Li       5.23500000       5.23500000       5.23500000
Li       3.49000000       3.49000000       6.98000000
Li       5.23500000       5.23500000       8.72500000
Li       3.49000000       6.98000000       0.00000000
Li       5.23500000       8.72500000       1.74500000
Li       3.49000000       6.98000000       3.49000000
Li       5.23500000       8.72500000       5.23500000
Li       3.49000000       6.98000000       6.98000000
Li       5.23500000       8.72500000       8.72500000
Li       6.98000000       0.00000000       0.00000000
Li       8.72500000       1.74500000       1.74500000
Li       6.98000000       0.00000000       3.49000000
Li       8.72500000       1.74500000       5.23500000
Li       6.98000000       0.00000000       6.98000000
Li       8.72500000       1.74500000       8.72500000
Li       6.98000000       3.49000000       0.00000000
Li       8.72500000       5.23500000       1.74500000
Li       6.98000000       3.49000000       3.49000000
Li       8.72500000       5.23500000       5.23500000
Li       6.98000000       3.49000000       6.98000000
Li       8.72500000       5.23500000       8.72500000
Li       6.98000000       6.98000000       0.00000000
Li       8.72500000       8.72500000       1.74500000
Li       6.98000000       6.98000000       3.49000000
Li       8.72500000       8.72500000       5.23500000
Li       6.98000000       6.98000000       6.98000000
Li       8.72500000       8.72500000       8.72500000
