96
Lattice="11.8 0.0 0.0 -5.9 10.219099764656375 0.0 0.0 0.0 14.04" Properties=species:S:1:pos:R:3 pbc="T T T"
Ti       0.00000000       0.00000000       0.00000000
Ti       0.00000000       1.70318329       2.34000000
Ti       0.00000000       0.00000000       4.68000000
Ti       0.00000000       1.70318329       7.02000000
Ti       0.00000000       0.00000000       9.36000000
Ti       0.00000000       1.70318329      11.70000000
Ti      -1.47500000       2.55477494       0.00000000
Ti      -1.47500000       4.25795824       2.34000000
Ti      -1.47500000       2.55477494       4.68000000
Ti      -1.47500000       4.25795824       7.02000000
Ti      -1.47500000       2.55477494       9.36000000
Ti      -1.47500000       4.25795824      11.70000000
Ti      -2.95000000       5.10954988       0.00000000
Ti      -2.95000000       6.81273318       2.34000000
Ti      -2.95000000       5.10954988       4.68000000
Ti      -2.95000000       6.81273318       7.02000000
Ti      -2.95000000       5.10954988       9.36000000
Ti      -2.95000000       6.81273318      11.70000000
Ti      -4.42500000       7.66432482       0.00000000
Ti      -4.42500000       9.36750812       2.34000000
Ti      -4.42500000       7.66432482       4.68000000
Ti      -4.42500000       9.36750812       7.02000000
Ti      -4.42500000       7.66432482       9.36000000
Ti      -4.42500000       9.36750812      11.70000000
Ti       2.95000000       0.00000000       0.00000000
Ti       2.95000000       1.70318329       2.34000000
Ti       2.95000000       0.00000000       4.68000000
Ti       2.95000000       1.70318329       7.02000000
Ti       2.95000000       0.00000000       9.36000000
Ti       2.95000000       1.70318329      11.70000000
Ti       1.47500000       2.55477494       0.00000000
Ti       1.47500000       4.25795824       2.34000000
Ti       1.47500000       2.55477494       4.68000000
Ti       1.47500000       4.25795824       7.02000000
Ti       1.47500000       2.55477494       9.36000000
Ti       1.47500000       4.25795824      11.70000000
Ti       0.00000000       5.10954988       0.00000000
Ti       0.00000000       6.81273318       2.34000000
Ti       0.00000000       5.10954988       4.68000000
Ti       0.00000000       6.81273318       7.02000000
Ti       0.00000000       5.10954988       9.36000000
Ti       0.00000000       6.81273318      11.70000000
Ti      -1.47500000       7.66432482       0.00000000
Ti      -1.47500000       9.36750812       2.34000000
Ti      -1.47500000       7.66432482       4.68000000
Ti      -1.47500000       9.36750812       7.02000000
Ti      -1.47500000       7.66432482       9.36000000
Ti      -1.47500000       9.36750812      11.70000000
Ti       5.90000000       0.00000000       0.00000000
Ti       5.90000000       1.70318329       2.34000000
Ti       5.90000000       0.00000000       4.68000000
Ti       5.90000000       1.70318329       7.02000000
Ti       5.90000000       0.00000000       9.36000000
Ti       5.90000000       1.70318329      11.70000000
Ti       4.42500000       2.55477494       0.00000000
Ti       4.42500000       4.25795824       2.34000000
Ti       4.42500000       2.55477494       4.68000000
Ti       4.42500000       4.25795824       7.02000000
Ti       4.42500000       2.55477494       9.36000000
Ti       4.42500000       4.25795824      11.70000000
Ti       2.95000000       5.10954988       0.00000000
Ti       2.95000000       6.81273318       2.34000000
Ti       2.95000000       5.10954988       4.68000000
Ti       2.95000000       6.81273318       7.02000000
Ti       2.95000000       5.10954988       9.36000000
Ti       2.95000000       6.81273318      11.70000000
Ti       1.47500000       7.66432482       0.00000000
Ti       1.47500000       9.36750812       2.34000000
Ti       1.47500000       7.66432482       4.68000000
Ti       1.47500000       9.36750812       7.02000000
Ti       1.47500000       7.66432482       9.36000000
Ti       1.47500000       9.36750812      11.70000000
Ti       8.85000000       0.00000000       0.00000000
Ti       8.85000000       1.70318329       2.34000000
Ti       8.85000000       0.00000000       4.68000000
Ti       8.85000000       1.70318329       7.02000000
Ti       8.85000000       0.00000000       9.36000000
Ti       8.85000000       1.70318329      11.70000000
Ti       7.37500000       2.55477494       0.00000000
Ti       7.37500000       4.25795824       2.34000000
Ti       7.37500000       2.55477494       4.68000000
Ti       7.37500000       4.25795824       7.02000000
Ti       7.37500000       2.55477494       9.36000000
Ti       7.37500000       4.25795824      11.70000000
Ti       5.90000000       5.10954988       0.00000000
Ti       5.90000000       6.81273318       2.34000000
Ti       5.90000000       5.10954988       4.68000000
Ti       5.90000000       6.81273318       7.02000000
Ti       5.90000000       5.10954988       9.36000000
Ti       5.90000000       6.81273318      11.70000000
Ti       4.42500000       7.66432482       0.00000000
Ti       4.42500000       9.36750812       2.34000000
Ti       4.42500000       7.66432482       4.68000000
Ti       4.42500000       9.36750812       7.02000000
Ti       4.42500000       7.66432482       9.36000000
Ti       4.42500000       9.36750812      11.70000000
96
Lattice="12.92 0.0 0.0 -6.46 11.189048216894946 0.0 0.0 0.0 15.450000000000001" Properties=species:S:1:pos:R:3 pbc="T T T"
Zr       0.00000000       0.00000000       0.00000000
Zr       0.00000000       1.86484137       2.57500000
Zr       0.00000000       0.00000000       5.15000000
Zr       0.00000000       1.86484137       7.72500000
Zr       0.00000000       0.00000000      10.30000000
Zr       0.00000000       1.86484137      12.87500000
Zr      -1.61500000       2.79726205       0.00000000
Zr      -1.61500000       4.66210342       2.57500000
Zr      -1.61500000       2.79726205       5.15000000
Zr      -1.61500000       4.66210342       7.72500000
Zr      -1.61500000       2.79726205      10.30000000
Zr      -1.61500000       4.66210342      12.87500000
Zr      -3.23000000       5.59452411       0.00000000
Zr      -3.23000000       7.45936548       2.57500000
Zr      -3.23000000       5.59452411       5.15000000
Zr      -3.23000000       7.45936548       7.72500000
Zr      -3.23000000       5.59452411      10.30000000
Zr      -3.23000000       7.45936548      12.87500000
Zr      -4.84500000       8.39178616       0.00000000
Zr      -4.84500000      10.25662753       2.57500000
Zr      -4.84500000       8.39178616       5.15000000
Zr      -4.84500000      10.25662753       7.72500000
Zr      -4.84500000       8.39178616      10.30000000
Zr      -4.84500000      10.25662753      12.87500000
Zr       3.23000000       0.00000000       0.00000000
Zr       3.23000000       1.86484137       2.57500000
Zr       3.23000000       0.00000000       5.15000000
Zr       3.23000000       1.86484137       7.72500000
Zr       3.23000000       0.00000000      10.30000000
Zr       3.23000000       1.86484137      12.87500000
Zr       1.61500000       2.79726205       0.00000000
Zr       1.61500000       4.66210342       2.57500000
Zr       1.61500000       2.79726205       5.15000000
Zr       1.61500000       4.66210342       7.72500000
Zr       1.61500000       2.79726205      10.30000000
Zr       1.61500000       4.66210342      12.87500000
Zr       0.00000000       5.59452411       0.00000000
Zr       0.00000000       7.45936548       2.57500000
Zr       0.00000000       5.59452411       5.15000000
Zr       0.00000000       7.45936548       7.72500000
Zr       0.00000000       5.59452411      10.30000000
Zr       0.00000000       7.45936548      12.87500000
Zr      -1.61500000       8.39178616       0.00000000
Zr      -1.61500000      10.25662753       2.57500000
Zr      -1.61500000       8.39178616       5.15000000
Zr      -1.61500000      10.25662753       7.72500000
Zr      -1.61500000       8.39178616      10.30000000
Zr      -1.61500000      10.25662753      12.87500000
Zr       6.46000000       0.00000000       0.00000000
Zr       6.46000000       1.86484137       2.57500000
Zr       6.46000000       0.00000000       5.15000000
Zr       6.46000000       1.86484137       7.72500000
Zr       6.46000000       0.00000000      10.30000000
Zr       6.46000000       1.86484137      12.87500000
Zr       4.84500000       2.79726205       0.00000000
Zr       4.84500000       4.66210342       2.57500000
Zr       4.84500000       2.79726205       5.15000000
Zr       4.84500000       4.66210342       7.72500000
Zr       4.84500000       2.79726205      10.30000000
Zr       4.84500000       4.66210342      12.87500000
Zr       3.23000000       5.59452411       0.00000000
Zr       3.23000000       7.45936548       2.57500000
Zr       3.23000000       5.59452411       5.15000000
Zr       3.23000000       7.45936548       7.72500000
Zr       3.23000000       5.59452411      10.30000000
Zr       3.23000000       7.45936548      12.87500000
Zr       1.61500000       8.39178616       0.00000000
Zr       1.61500000      10.25662753       2.57500000
Zr       1.61500000       8.39178616       5.15000000
Zr       1.61500000      10.25662753       7.72500000
Zr       1.61500000       8.39178616      10.30000000
Zr       1.61500000      10.25662753      12.87500000
Zr       9.69000000       0.00000000       0.00000000
Zr       9.69000000       1.86484137       2.57500000
Zr       9.69000000       0.00000000       5.15000000
Zr       9.69000000       1.86484137       7.72500000
Zr       9.69000000       0.00000000      10.30000000
Zr       9.69000000       1.86484137      12.87500000
Zr       8.07500000       2.79726205       0.00000000
Zr       8.07500000       4.66210342       2.57500000
Zr       8.07500000       2.79726205       5.15000000
Zr       8.07500000       4.66210342       7.72500000
Zr       8.07500000       2.79726205      10.30000000
Zr       8.07500000       4.66210342      12.87500000
Zr       6.46000000       5.59452411       0.00000000
Zr       6.46000000       7.45936548       2.57500000
Zr       6.46000000       5.59452411       5.15000000
Zr       6.46000000       7.45936548       7.72500000
Zr       6.46000000       5.59452411      10.30000000
Zr       6.46000000       7.45936548      12.87500000
Zr       4.84500000       8.39178616       0.00000000
Zr       4.84500000      10.25662753       2.57500000
Zr       4.84500000       8.39178616       5.15000000
Zr       4.84500000      10.25662753       7.72500000
Zr       4.84500000       8.39178616      10.30000000
Zr       4.84500000      10.25662753      12.87500000
96
Lattice="12.84 0.0 0.0 -6.42 11.11976618459219 0.0 0.0 0.0 15.629999999999999" Properties=species:S:1:pos:R:3 pbc="T T T"
Mg       0.00000000       0.00000000       0.00000000
Mg      -0.00000000       1.85329436       2.60500000
Mg       0.00000000       0.00000000       5.21000000
Mg      -0.00000000       1.85329436       7.81500000
Mg       0.00000000       0.00000000      10.42000000
Mg      -0.00000000       1.85329436      13.02500000
Mg      -1.60500000       2.77994155       0.00000000
Mg      -1.60500000       4.63323591       2.60500000
Mg      -1.60500000       2.77994155       5.21000000
Mg      -1.60500000       4.63323591       7.81500000
Mg      -1.60500000       2.77994155      10.42000000
Mg      -1.60500000       4.63323591      13.02500000
Mg      -3.21000000       5.55988309       0.00000000
Mg      -3.21000000       7.41317746       2.60500000
Mg      -3.21000000       5.55988309       5.21000000
Mg      -3.21000000       7.41317746       7.81500000
Mg      -3.21000000       5.55988309      10.42000000
Mg      -3.21000000       7.41317746      13.02500000
Mg      -4.81500000       8.33982464       0.00000000
Mg      -4.81500000      10.19311900       2.60500000
Mg      -4.81500000       8.33982464       5.21000000
Mg      -4.81500000      10.19311900       7.81500000
Mg      -4.81500000       8.33982464      10.42000000
Mg      -4.81500000      10.19311900      13.02500000
Mg       3.21000000       0.00000000       0.00000000
Mg       3.21000000       1.85329436       2.60500000
Mg       3.21000000       0.00000000       5.21000000
Mg       3.21000000       1.85329436       7.81500000
Mg       3.21000000       0.00000000      10.42000000
Mg       3.21000000       1.85329436      13.02500000
Mg       1.60500000       2.77994155       0.00000000
Mg       1.60500000       4.63323591       2.60500000
Mg       1.60500000       2.77994155       5.21000000
Mg       1.60500000       4.63323591       7.81500000
Mg       1.60500000       2.77994155      10.42000000
Mg       1.60500000       4.63323591      13.02500000
Mg       0.00000000       5.55988309       0.00000000
Mg      -0.00000000       7.41317746       2.60500000
Mg       0.00000000       5.55988309       5.21000000
Mg      -0.00000000       7.41317746       7.81500000
Mg       0.00000000       5.55988309      10.42000000
Mg      -0.00000000       7.41317746      13.02500000
Mg      -1.60500000       8.33982464       0.00000000
Mg      -1.60500000      10.19311900       2.60500000
Mg      -1.60500000       8.33982464       5.21000000
Mg      -1.60500000      10.19311900       7.81500000
Mg      -1.60500000       8.33982464      10.42000000
Mg      -1.60500000      10.19311900      13.02500000
Mg       6.42000000       0.00000000       0.00000000
Mg       6.42000000       1.85329436       2.60500000
Mg       6.42000000       0.00000000       5.21000000
Mg       6.42000000       1.85329436       7.81500000
Mg       6.42000000       0.00000000      10.42000000
Mg       6.42000000       1.85329436      13.02500000
Mg       4.81500000       2.77994155       0.00000000
Mg       4.81500000       4.63323591       2.60500000
Mg       4.81500000       2.77994155       5.21000000
Mg       4.81500000       4.63323591       7.81500000
Mg       4.81500000       2.77994155      10.42000000
Mg       4.81500000       4.63323591      13.02500000
Mg       3.21000000       5.55988309       0.00000000
Mg       3.21000000       7.41317746       2.60500000
Mg       3.21000000       5.55988309       5.21000000
Mg       3.21000000       7.41317746       7.81500000
Mg       3.21000000       5.55988309      10.42000000
Mg       3.21000000       7.41317746      13.02500000
Mg       1.60500000       8.33982464       0.00000000
Mg       1.60500000      10.19311900       2.60500000
Mg       1.60500000       8.33982464       5.21000000
Mg       1.60500000      10.19311900       7.81500000
Mg       1.60500000       8.33982464      10.42000000
Mg       1.60500000      10.19311900      13.02500000
Mg       9.63000000       0.00000000       0.00000000
Mg       9.63000000       1.85329436       2.60500000
Mg       9.63000000       0.00000000       5.21000000
Mg       9.63000000       1.85329436       7.81500000
Mg       9.63000000       0.00000000      10.42000000
Mg       9.63000000       1.85329436      13.02500000
Mg       8.02500000       2.77994155       0.00000000
Mg       8.02500000       4.63323591       2.60500000
Mg       8.02500000       2.77994155       5.21000000
Mg       8.02500000       4.63323591       7.81500000
Mg       8.02500000       2.77994155      10.42000000
Mg       8.02500000       4.63323591      13.02500000
Mg       6.42000000       5.55988309       0.00000000
Mg       6.42000000       7.41317746       2.60500000
Mg       6.42000000       5.55988309       5.21000000
Mg       6.42000000       7.41317746       7.81500000
Mg       6.42000000       5.55988309      10.42000000
Mg       6.42000000       7.41317746      13.02500000
Mg       4.81500000       8.33982464       0.00000000
Mg       4.81500000      10.19311900       2.60500000
Mg       4.81500000       8.33982464       5.21000000
Mg       4.81500000      10.19311900       7.81500000
Mg       4.81500000       8.33982464      10.42000000
Mg       4.81500000      10.19311900      13.02500000
96
Lattice="10.04 0.0 0.0 -5.02 8.694895053995763 0.0 0.0 0.0 12.21" Properties=species:S:1:pos:R:3:initial_magmoms:R:1 pbc="T T T"
Co       0.00000000       0.00000000       0.00000000       1.20000000
Co       0.00000000       1.44914918       2.03500000       1.20000000
Co       0.00000000       0.00000000       4.07000000       1.20000000
Co       0.00000000       1.44914918       6.10500000       1.20000000
Co       0.00000000       0.00000000       8.14000000       1.20000000
Co       0.00000000       1.44914918      10.17500000       1.20000000
Co      -1.25500000       2.17372376       0.00000000       1.20000000
Co      -1.25500000       3.62287294       2.03500000       1.20000000
Co      -1.25500000       2.17372376       4.07000000       1.20000000
Co      -1.25500000       3.62287294       6.10500000       1.20000000
Co      -1.25500000       2.17372376       8.14000000       1.20000000
Co      -1.25500000       3.62287294      10.17500000       1.20000000
Co      -2.51000000       4.34744753       0.00000000       1.20000000
Co      -2.51000000       5.79659670       2.03500000       1.20000000
Co      -2.51000000       4.34744753       4.07000000       1.20000000
Co      -2.51000000       5.79659670       6.10500000       1.20000000
Co      -2.51000000       4.34744753       8.14000000       1.20000000
Co      -2.51000000       5.79659670      10.17500000       1.20000000
Co      -3.76500000       6.52117129       0.00000000       1.20000000
Co      -3.76500000       7.97032047       2.03500000       1.20000000
Co      -3.76500000       6.52117129       4.07000000       1.20000000
Co      -3.76500000       7.97032047       6.10500000       1.20000000
Co      -3.76500000       6.52117129       8.14000000       1.20000000
Co      -3.76500000       7.97032047      10.17500000       1.20000000
Co       2.51000000       0.00000000       0.00000000       1.20000000
Co       2.51000000       1.44914918       2.03500000       1.20000000
Co       2.51000000       0.00000000       4.07000000       1.20000000
Co       2.51000000       1.44914918       6.10500000       1.20000000
Co       2.51000000       0.00000000       8.14000000       1.20000000
Co       2.51000000       1.44914918      10.17500000       1.20000000
Co       1.25500000       2.17372376       0.00000000       1.20000000
Co       1.25500000       3.62287294       2.03500000       1.20000000
Co       1.25500000       2.17372376       4.07000000       1.20000000
Co       1.25500000       3.62287294       6.10500000       1.20000000
Co       1.25500000       2.17372376       8.14000000       1.20000000
Co       1.25500000       3.62287294      10.17500000       1.20000000
Co       0.00000000       4.34744753       0.00000000       1.20000000
Co       0.00000000       5.79659670       2.03500000       1.20000000
Co       0.00000000       4.34744753       4.07000000       1.20000000
Co       0.00000000       5.79659670       6.10500000       1.20000000
Co       0.00000000       4.34744753       8.14000000       1.20000000
Co       0.00000000       5.79659670      10.17500000       1.20000000
Co      -1.25500000       6.52117129       0.00000000       1.20000000
Co      -1.25500000       7.97032047       2.03500000       1.20000000
Co      -1.25500000       6.52117129       4.07000000       1.20000000
Co      -1.25500000       7.97032047       6.10500000       1.20000000
Co      -1.25500000       6.52117129       8.14000000       1.20000000
Co      -1.25500000       7.97032047      10.17500000       1.20000000
Co       5.02000000       0.00000000       0.00000000       1.20000000
Co       5.02000000       1.44914918       2.03500000       1.20000000
Co       5.02000000       0.00000000       4.07000000       1.20000000
Co       5.02000000       1.44914918       6.10500000       1.20000000
Co       5.02000000       0.00000000       8.14000000       1.20000000
Co       5.02000000       1.44914918      10.17500000       1.20000000
Co       3.76500000       2.17372376       0.00000000       1.20000000
Co       3.76500000       3.62287294       2.03500000       1.20000000
Co       3.76500000       2.17372376       4.07000000       1.20000000
Co       3.76500000       3.62287294       6.10500000       1.20000000
Co       3.76500000       2.17372376       8.14000000       1.20000000
Co       3.76500000       3.62287294      10.17500000       1.20000000
Co       2.51000000       4.34744753       0.00000000       1.20000000
Co       2.51000000       5.79659670       2.03500000       1.20000000
Co       2.51000000       4.34744753       4.07000000       1.20000000
Co       2.51000000       5.79659670       6.10500000       1.20000000
Co       2.51000000       4.34744753       8.14000000       1.20000000
Co       2.51000000       5.79659670      10.17500000       1.20000000
Co       1.25500000       6.52117129       0.00000000       1.20000000
Co       1.25500000       7.97032047       2.03500000       1.20000000
Co       1.25500000       6.52117129       4.07000000       1.20000000
Co       1.25500000       7.97032047       6.10500000       1.20000000
Co       1.25500000       6.52117129       8.14000000       1.20000000
Co       1.25500000       7.97032047      10.17500000       1.20000000
Co       7.53000000       0.00000000       0.00000000       1.20000000
Co       7.53000000       1.44914918       2.03500000       1.20000000
Co       7.53000000       0.00000000       4.07000000       1.20000000
Co       7.53000000       1.44914918       6.10500000       1.20000000
Co       7.53000000       0.00000000       8.14000000       1.20000000
Co       7.53000000       1.44914918      10.17500000       1.20000000
Co       6.27500000       2.17372376       0.00000000       1.20000000
Co       6.27500000       3.62287294       2.03500000       1.20000000
Co       6.27500000       2.17372376       4.07000000       1.20000000
Co       6.27500000       3.62287294       6.10500000       1.20000000
Co       6.27500000       2.17372376       8.14000000       1.20000000
Co       6.27500000       3.62287294      10.17500000       1.20000000
Co       5.02000000       4.34744753       0.00000000       1.20000000
Co       5.02000000       5.79659670       2.03500000       1.20000000
Co       5.02000000       4.34744753       4.07000000       1.20000000
Co       5.02000000       5.79659670       6.10500000       1.20000000
Co       5.02000000       4.34744753       8.14000000       1.20000000
Co       5.02000000       5.79659670      10.17500000       1.20000000
Co       3.76500000       6.52117129       0.00000000       1.20000000
Co       3.76500000       7.97032047       2.03500000       1.20000000
Co       3.76500000       6.52117129       4.07000000       1.20000000
Co       3.76500000       7.97032047       6.10500000       1.20000000
Co       3.76500000       6.52117129       8.14000000       1.20000000
Co       3.76500000       7.97032047      10.17500000       1.20000000
96
Lattice="10.64 0.0 0.0 -5.32 9.214510296266427 0.0 0.0 0.0 14.850000000000001" Properties=species:S:1:pos:R:3 pbc="T T T"
Zn       0.00000000       0.00000000       0.00000000
Zn       0.00000000       1.53575172       2.47500000
Zn       0.00000000       0.00000000       4.95000000
Zn       0.00000000       1.53575172       7.42500000
Zn       0.00000000       0.00000000       9.90000000
Zn       0.00000000       1.53575172      12.37500000
Zn      -1.33000000       2.30362757       0.00000000
Zn      -1.33000000       3.83937929       2.47500000
Zn      -1.33000000       2.30362757       4.95000000
Zn      -1.33000000       3.83937929       7.42500000
Zn      -1.33000000       2.30362757       9.90000000
Zn      -1.33000000       3.83937929      12.37500000
Zn      -2.66000000       4.60725515       0.00000000
Zn      -2.66000000       6.14300686       2.47500000
Zn      -2.66000000       4.60725515       4.95000000
Zn      -2.66000000       6.14300686       7.42500000
Zn      -2.66000000       4.60725515       9.90000000
Zn      -2.66000000       6.14300686      12.37500000
Zn      -3.99000000       6.91088272       0.00000000
Zn      -3.99000000       8.44663444       2.47500000
Zn      -3.99000000       6.91088272       4.95000000
Zn      -3.99000000       8.44663444       7.42500000
Zn      -3.99000000       6.91088272       9.90000000
Zn      -3.99000000       8.44663444      12.37500000
Zn       2.66000000       0.00000000       0.00000000
Zn       2.66000000       1.53575172       2.47500000
Zn       2.66000000       0.00000000       4.95000000
Zn       2.66000000       1.53575172       7.42500000
Zn       2.66000000       0.00000000       9.90000000
Zn       2.66000000       1.53575172      12.37500000
Zn       1.33000000       2.30362757       0.00000000
Zn       1.33000000       3.83937929       2.47500000
Zn       1.33000000       2.30362757       4.95000000
Zn       1.33000000       3.83937929       7.42500000
Zn       1.33000000       2.30362757       9.90000000
Zn       1.33000000       3.83937929      12.37500000
Zn       0.00000000       4.60725515       0.00000000
Zn       0.00000000       6.14300686       2.47500000
Zn       0.00000000       4.60725515       4.95000000
Zn       0.00000000       6.14300686       7.42500000
Zn       0.00000000       4.60725515       9.90000000
Zn       0.00000000       6.14300686      12.37500000
Zn      -1.33000000       6.91088272       0.00000000
Zn      -1.33000000       8.44663444       2.47500000
Zn      -1.33000000       6.91088272       4.95000000
Zn      -1.33000000       8.44663444       7.42500000
Zn      -1.33000000       6.91088272       9.90000000
Zn      -1.33000000       8.44663444      12.37500000
Zn       5.32000000       0.00000000       0.00000000
Zn       5.32000000       1.53575172       2.47500000
Zn       5.32000000       0.00000000       4.95000000
Zn       5.32000000       1.53575172       7.42500000
Zn       5.32000000       0.00000000       9.90000000
Zn       5.32000000       1.53575172      12.37500000
Zn       3.99000000       2.30362757       0.00000000
Zn       3.99000000       3.83937929       2.47500000
Zn       3.99000000       2.30362757       4.95000000
Zn       3.99000000       3.83937929       7.42500000
Zn       3.99000000       2.30362757       9.90000000
Zn       3.99000000       3.83937929      12.37500000
Zn       2.66000000       4.60725515       0.00000000
Zn       2.66000000       6.14300686       2.47500000
Zn       2.66000000       4.60725515       4.95000000
Zn       2.66000000       6.14300686       7.42500000
Zn       2.66000000       4.60725515       9.90000000
Zn       2.66000000       6.14300686      12.37500000
Zn       1.33000000       6.91088272       0.00000000
Zn       1.33000000       8.44663444       2.47500000
Zn       1.33000000       6.91088272       4.95000000
Zn       1.33000000       8.44663444       7.42500000
Zn       1.33000000       6.91088272       9.90000000
Zn       1.33000000       8.44663444      12.37500000
Zn       7.98000000       0.00000000       0.00000000
Zn       7.98000000       1.53575172       2.47500000
Zn       7.98000000       0.00000000       4.95000000
Zn       7.98000000       1.53575172       7.42500000
Zn       7.98000000       0.00000000       9.90000000
Zn       7.98000000       1.53575172      12.37500000
Zn       6.65000000       2.30362757       0.00000000
Zn       6.65000000       3.83937929       2.47500000
Zn       6.65000000       2.30362757       4.95000000
Zn       6.65000000       3.83937929       7.42500000
Zn       6.65000000       2.30362757       9.90000000
Zn       6.65000000       3.83937929      12.37500000
Zn       5.32000000       4.60725515       0.00000000
Zn       5.32000000       6.14300686       2.47500000
Zn       5.32000000       4.60725515       4.95000000
Zn       5.32000000       6.14300686       7.42500000
Zn       5.32000000       4.60725515       9.90000000
Zn       5.32000000       6.14300686      12.37500000
Zn       3.99000000       6.91088272       0.00000000
Zn       3.99000000       8.44663444       2.47500000
Zn       3.99000000       6.91088272       4.95000000
Zn       3.99000000       8.44663444       7.42500000
Zn       3.99000000       6.91088272       9.90000000
Zn       3.99000000       8.44663444      12.37500000
96
Lattice="11.92 0.0 0.0 -5.96 10.323022813110509 0.0 0.0 0.0 16.86" Properties=species:S:1:pos:R:3 pbc="T T T"
Cd       0.00000000       0.00000000       0.00000000
Cd       0.00000000       1.72050380       2.81000000
Cd       0.00000000       0.00000000       5.62000000
Cd       0.00000000       1.72050380       8.43000000
Cd       0.00000000       0.00000000      11.24000000
Cd       0.00000000       1.72050380      14.05000000
Cd      -1.49000000       2.58075570       0.00000000
Cd      -1.49000000       4.30125951       2.81000000
Cd      -1.49000000       2.58075570       5.62000000
Cd      -1.49000000       4.30125951       8.43000000
Cd      -1.49000000       2.58075570      11.24000000
Cd      -1.49000000       4.30125951      14.05000000
Cd      -2.98000000       5.16151141       0.00000000
Cd      -2.98000000       6.88201521       2.81000000
Cd      -2.98000000       5.16151141       5.62000000
Cd      -2.98000000       6.88201521       8.43000000
Cd      -2.98000000       5.16151141      11.24000000
Cd      -2.98000000       6.88201521      14.05000000
Cd      -4.47000000       7.74226711       0.00000000
Cd      -4.47000000       9.46277091       2.81000000
Cd      -4.47000000       7.74226711       5.62000000
Cd      -4.47000000       9.46277091       8.43000000
Cd      -4.47000000       7.74226711      11.24000000
Cd      -4.47000000       9.46277091      14.05000000
Cd       2.98000000       0.00000000       0.00000000
Cd       2.98000000       1.72050380       2.81000000
Cd       2.98000000       0.00000000       5.62000000
Cd       2.98000000       1.72050380       8.43000000
Cd       2.98000000       0.00000000      11.24000000
Cd       2.98000000       1.72050380      14.05000000
Cd       1.49000000       2.58075570       0.00000000
Cd       1.49000000       4.30125951       2.81000000
Cd       1.49000000       2.58075570       5.62000000
Cd       1.49000000       4.30125951       8.43000000
Cd       1.49000000       2.58075570      11.24000000
Cd       1.49000000       4.30125951      14.05000000
Cd       0.00000000       5.16151141       0.00000000
Cd       0.00000000       6.88201521       2.81000000
Cd       0.00000000       5.16151141       5.62000000
Cd       0.00000000       6.88201521       8.43000000
Cd       0.00000000       5.16151141      11.24000000
Cd       0.00000000       6.88201521      14.05000000
Cd      -1.49000000       7.74226711       0.00000000
Cd      -1.49000000       9.46277091       2.81000000
Cd      -1.49000000       7.74226711       5.62000000
Cd      -1.49000000       9.46277091       8.43000000
Cd      -1.49000000       7.74226711      11.24000000
Cd      -1.49000000       9.46277091      14.05000000
Cd       5.96000000       0.00000000       0.00000000
Cd       5.96000000       1.72050380       2.81000000
Cd       5.96000000       0.00000000       5.62000000
Cd       5.96000000       1.72050380       8.43000000
Cd       5.96000000       0.00000000      11.24000000
Cd       5.96000000       1.72050380      14.05000000
Cd       4.47000000       2.58075570       0.00000000
Cd       4.47000000       4.30125951       2.81000000
Cd       4.47000000       2.58075570       5.62000000
Cd       4.47000000       4.30125951       8.43000000
Cd       4.47000000       2.58075570      11.24000000
Cd       4.47000000       4.30125951      14.05000000
Cd       2.98000000       5.16151141       0.00000000
Cd       2.98000000       6.88201521       2.81000000
Cd       2.98000000       5.16151141       5.62000000
Cd       2.98000000       6.88201521       8.43000000
Cd       2.98000000       5.16151141      11.24000000
Cd       2.98000000       6.88201521      14.05000000
Cd       1.49000000       7.74226711       0.00000000
Cd       1.49000000       9.46277091       2.81000000
Cd       1.49000000       7.74226711       5.62000000
Cd       1.49000000       9.46277091       8.43000000
Cd       1.49000000       7.74226711      11.24000000
Cd       1.49000000       9.46277091      14.05000000
Cd       8.94000000       0.00000000       0.00000000
Cd       8.94000000       1.72050380       2.81000000
Cd       8.94000000       0.00000000       5.62000000
Cd       8.94000000       1.72050380       8.43000000
Cd       8.94000000       0.00000000      11.24000000
Cd       8.94000000       1.72050380      14.05000000
Cd       7.45000000       2.58075570       0.00000000
Cd       7.45000000       4.30125951       2.81000000
Cd       7.45000000       2.58075570       5.62000000
Cd       7.45000000       4.30125951       8.43000000
Cd       7.45000000       2.58075570      11.24000000
Cd       7.45000000       4.30125951      14.05000000
Cd       5.96000000       5.16151141       0.00000000
Cd       5.96000000       6.88201521       2.81000000
Cd       5.96000000       5.16151141       5.62000000
Cd       5.96000000       6.88201521       8.43000000
Cd       5.96000000       5.16151141      11.24000000
Cd       5.96000000       6.88201521      14.05000000
Cd       4.47000000       7.74226711       0.00000000
Cd       4.47000000       9.46277091       2.81000000
Cd       4.47000000       7.74226711       5.62000000
Cd       4.47000000       9.46277091       8.43000000
Cd       4.47000000       7.74226711      11.24000000
Cd       4.47000000       9.46277091      14.05000000
96
Lattice="9.16 0.0 0.0 -4.58 7.932792698665458 0.0 0.0 0.0 10.74" Properties=species:S:1:pos:R:3 pbc="T T T"
Be       0.00000000       0.00000000       0.00000000
Be       0.00000000       1.32213212       1.79000000
Be       0.00000000       0.00000000       3.58000000
Be       0.00000000       1.32213212       5.37000000
Be       0.00000000       0.00000000       7.16000000
Be       0.00000000       1.32213212       8.95000000
Be      -1.14500000       1.98319817       0.00000000
Be      -1.14500000       3.30533029       1.79000000
Be      -1.14500000       1.98319817       3.58000000
Be      -1.14500000       3.30533029       5.37000000
Be      -1.14500000       1.98319817       7.16000000
Be      -1.14500000       3.30533029       8.95000000
Be      -2.29000000       3.96639635       0.00000000
Be      -2.29000000       5.28852847       1.79000000
Be      -2.29000000       3.96639635       3.58000000
Be      -2.29000000       5.28852847       5.37000000
Be      -2.29000000       3.96639635       7.16000000
Be      -2.29000000       5.28852847       8.95000000
Be      -3.43500000       5.94959452       0.00000000
Be      -3.43500000       7.27172664       1.79000000
Be      -3.43500000       5.94959452       3.58000000
Be      -3.43500000       7.27172664       5.37000000
Be      -3.43500000       5.94959452       7.16000000
Be      -3.43500000       7.27172664       8.95000000
Be       2.29000000       0.00000000       0.00000000
Be       2.29000000       1.32213212       1.79000000
Be       2.29000000       0.00000000       3.58000000
Be       2.29000000       1.32213212       5.37000000
Be       2.29000000       0.00000000       7.16000000
Be       2.29000000       1.32213212       8.95000000
Be       1.14500000       1.98319817       0.00000000
Be       1.14500000       3.30533029       1.79000000
Be       1.14500000       1.98319817       3.58000000
Be       1.14500000       3.30533029       5.37000000
Be       1.14500000       1.98319817       7.16000000
Be       1.14500000       3.30533029       8.95000000
Be       0.00000000       3.96639635       0.00000000
Be       0.00000000       5.28852847       1.79000000
Be       0.00000000       3.96639635       3.58000000
Be       0.00000000       5.28852847       5.37000000
Be       0.00000000       3.96639635       7.16000000
Be       0.00000000       5.28852847       8.95000000
Be      -1.14500000       5.94959452       0.00000000
Be      -1.14500000       7.27172664       1.79000000
Be      -1.14500000       5.94959452       3.58000000
Be      -1.14500000       7.27172664       5.37000000
Be      -1.14500000       5.94959452       7.16000000
Be      -1.14500000       7.27172664       8.95000000
Be       4.58000000       0.00000000       0.00000000
Be       4.58000000       1.32213212       1.79000000
Be       4.58000000       0.00000000       3.58000000
Be       4.58000000       1.32213212       5.37000000
Be       4.58000000       0.00000000       7.16000000
Be       4.58000000       1.32213212       8.95000000
Be       3.43500000       1.98319817       0.00000000
Be       3.43500000       3.30533029       1.79000000
Be       3.43500000       1.98319817       3.58000000
Be       3.43500000       3.30533029       5.37000000
Be       3.43500000       1.98319817       7.16000000
Be       3.43500000       3.30533029       8.95000000
Be       2.29000000       3.96639635       0.00000000
Be       2.29000000       5.28852847       1.79000000
Be       2.29000000       3.96639635       3.58000000
Be       2.29000000       5.28852847       5.37000000
Be       2.29000000       3.96639635       7.16000000
Be       2.29000000       5.28852847       8.95000000
Be       1.14500000       5.94959452       0.00000000
Be       1.14500000       7.27172664       1.79000000
Be       1.14500000       5.94959452       3.58000000
Be       1.14500000       7.27172664       5.37000000
Be       1.14500000       5.94959452       7.16000000
Be       1.14500000       7.27172664       8.95000000
Be       6.87000000       0.00000000       0.00000000
Be       6.87000000       1.32213212       1.79000000
Be       6.87000000       0.00000000       3.58000000
Be       6.87000000       1.32213212       5.37000000
Be       6.87000000       0.00000000       7.16000000
Be       6.87000000       1.32213212       8.95000000
Be       5.72500000       1.98319817       0.00000000
Be       5.72500000       3.30533029       1.79000000
Be       5.72500000       1.98319817       3.58000000
Be       5.72500000       3.30533029       5.37000000
Be       5.72500000       1.98319817       7.16000000
Be       5.72500000       3.30533029       8.95000000
Be       4.58000000       3.96639635       0.00000000
Be       4.58000000       5.28852847       1.79000000
Be       4.58000000       3.96639635       3.58000000
Be       4.58000000       5.28852847       5.37000000
Be       4.58000000       3.96639635       7.16000000
Be       4.58000000       5.28852847       8.95000000
Be       3.43500000       5.94959452       0.00000000
Be       3.43500000       7.27172664       1.79000000
Be       3.43500000       5.94959452       3.58000000
Be       3.43500000       7.27172664       5.37000000
Be       3.43500000       5.94959452       7.16000000
Be       3.43500000       7.27172664       8.95000000
96
Lattice="12.76 0.0 0.0 -6.38 11.050484152289437 0.0 0.0 0.0 15.149999999999999" Properties=species:S:1:pos:R:3 pbc="T T T"
Hf       0.00000000       0.00000000       0.00000000
Hf      -0.00000000       1.84174736       2.52500000
Hf       0.00000000       0.00000000       5.05000000
Hf      -0.00000000       1.84174736       7.57500000
Hf       0.00000000       0.00000000      10.10000000
Hf      -0.00000000       1.84174736      12.62500000
Hf      -1.59500000       2.76262104       0.00000000
Hf      -1.59500000       4.60436840       2.52500000
Hf      -1.59500000       2.76262104       5.05000000
Hf      -1.59500000       4.60436840       7.57500000
Hf      -1.59500000       2.76262104      10.10000000
Hf      -1.59500000       4.60436840      12.62500000
Hf      -3.19000000       5.52524208       0.00000000
Hf      -3.19000000       7.36698943       2.52500000
Hf      -3.19000000       5.52524208       5.05000000
Hf      -3.19000000       7.36698943       7.57500000
Hf      -3.19000000       5.52524208      10.10000000
Hf      -3.19000000       7.36698943      12.62500000
Hf      -4.78500000       8.28786311       0.00000000
Hf      -4.78500000      10.12961047       2.52500000
Hf      -4.78500000       8.28786311       5.05000000
Hf      -4.78500000      10.12961047       7.57500000
Hf      -4.78500000       8.28786311      10.10000000
Hf      -4.78500000      10.12961047      12.62500000
Hf       3.19000000       0.00000000       0.00000000
Hf       3.19000000       1.84174736       2.52500000
Hf       3.19000000       0.00000000       5.05000000
Hf       3.19000000       1.84174736       7.57500000
Hf       3.19000000       0.00000000      10.10000000
Hf       3.19000000       1.84174736      12.62500000
Hf       1.59500000       2.76262104       0.00000000
Hf       1.59500000       4.60436840       2.52500000
Hf       1.59500000       2.76262104       5.05000000
Hf       1.59500000       4.60436840       7.57500000
Hf       1.59500000       2.76262104      10.10000000
Hf       1.59500000       4.60436840      12.62500000
Hf       0.00000000       5.52524208       0.00000000
Hf      -0.00000000       7.36698943       2.52500000
Hf       0.00000000       5.52524208       5.05000000
Hf      -0.00000000       7.36698943       7.57500000
Hf       0.00000000       5.52524208      10.10000000
Hf      -0.00000000       7.36698943      12.62500000
Hf      -1.59500000       8.28786311       0.00000000
Hf      -1.59500000      10.12961047       2.52500000
Hf      -1.59500000       8.28786311       5.05000000
Hf      -1.59500000      10.12961047       7.57500000
Hf      -1.59500000       8.28786311      10.10000000
Hf      -1.59500000      10.12961047      12.62500000
Hf       6.38000000       0.00000000       0.00000000
Hf       6.38000000       1.84174736       2.52500000
Hf       6.38000000       0.00000000       5.05000000
Hf       6.38000000       1.84174736       7.57500000
Hf       6.38000000       0.00000000      10.10000000
Hf       6.38000000       1.84174736      12.62500000
Hf       4.78500000       2.76262104       0.00000000
Hf       4.78500000       4.60436840       2.52500000
Hf       4.78500000       2.76262104       5.05000000
Hf       4.78500000       4.60436840       7.57500000
Hf       4.78500000       2.76262104      10.10000000
Hf       4.78500000       4.60436840      12.62500000
Hf       3.19000000       5.52524208       0.00000000
Hf       3.19000000       7.36698943       2.52500000
Hf       3.19000000       5.52524208       5.05000000
Hf       3.19000000       7.36698943       7.57500000
Hf       3.19000000       5.52524208      10.10000000
Hf       3.19000000       7.36698943      12.62500000
Hf       1.59500000       8.28786311       0.00000000
Hf       1.59500000      10.12961047       2.52500000
Hf       1.59500000       8.28786311       5.05000000
Hf       1.59500000      10.12961047       7.57500000
Hf       1.59500000       8.28786311      10.10000000
Hf       1.59500000      10.12961047      12.62500000
Hf       9.57000000       0.00000000       0.00000000
Hf       9.57000000       1.84174736       2.52500000
Hf       9.57000000       0.00000000       5.05000000
Hf       9.57000000       1.84174736       7.57500000
Hf       9.57000000       0.00000000      10.10000000
Hf       9.57000000       1.84174736      12.62500000
Hf       7.97500000       2.76262104       0.00000000
Hf       7.97500000       4.60436840       2.52500000
Hf       7.97500000       2.76262104       5.05000000
Hf       7.97500000       4.60436840       7.57500000
Hf       7.97500000       2.76262104      10.10000000
Hf       7.97500000       4.60436840      12.62500000
Hf       6.38000000       5.52524208       0.00000000
Hf       6.38000000       7.36698943       2.52500000
Hf       6.38000000       5.52524208       5.05000000
Hf       6.38000000       7.36698943       7.57500000
Hf       6.38000000       5.52524208      10.10000000
Hf       6.38000000       7.36698943      12.62500000
Hf       4.78500000       8.28786311       0.00000000
Hf       4.78500000      10.12961047       2.52500000
Hf       4.78500000       8.28786311       5.05000000
Hf       4.78500000      10.12961047       7.57500000
Hf       4.78500000       8.28786311      10.10000000
Hf       4.78500000      10.12961047      12.62500000
96
Lattice="10.84 0.0 0.0 -5.42 9.387715377023314 0.0 0.0 0.0 12.84" Properties=species:S:1:pos:R:3 pbc="T T T"
Ru       0.00000000       0.00000000       0.00000000
Ru       0.00000000       1.56461923       2.14000000
Ru       0.00000000       0.00000000       4.28000000
Ru       0.00000000       1.56461923       6.42000000
Ru       0.00000000       0.00000000       8.56000000
Ru       0.00000000       1.56461923      10.70000000
Ru      -1.35500000       2.34692884       0.00000000
Ru      -1.35500000       3.91154807       2.14000000
Ru      -1.35500000       2.34692884       4.28000000
Ru      -1.35500000       3.91154807       6.42000000
Ru      -1.35500000       2.34692884       8.56000000
Ru      -1.35500000       3.91154807      10.70000000
Ru      -2.71000000       4.69385769       0.00000000
Ru      -2.71000000       6.25847692       2.14000000
Ru      -2.71000000       4.69385769       4.28000000
Ru      -2.71000000       6.25847692       6.42000000
Ru      -2.71000000       4.69385769       8.56000000
Ru      -2.71000000       6.25847692      10.70000000
Ru      -4.06500000       7.04078653       0.00000000
Ru      -4.06500000       8.60540576       2.14000000
Ru      -4.06500000       7.04078653       4.28000000
Ru      -4.06500000       8.60540576       6.42000000
Ru      -4.06500000       7.04078653       8.56000000
Ru      -4.06500000       8.60540576      10.70000000
Ru       2.71000000       0.00000000       0.00000000
Ru       2.71000000       1.56461923       2.14000000
Ru       2.71000000       0.00000000       4.28000000
Ru       2.71000000       1.56461923       6.42000000
Ru       2.71000000       0.00000000       8.56000000
Ru       2.71000000       1.56461923      10.70000000
Ru       1.35500000       2.34692884       0.00000000
Ru       1.35500000       3.91154807       2.14000000
Ru       1.35500000       2.34692884       4.28000000
Ru       1.35500000       3.91154807       6.42000000
Ru       1.35500000       2.34692884       8.56000000
Ru       1.35500000       3.91154807      10.70000000
Ru       0.00000000       4.69385769       0.00000000
Ru       0.00000000       6.25847692       2.14000000
Ru       0.00000000       4.69385769       4.28000000
Ru       0.00000000       6.25847692       6.42000000
Ru       0.00000000       4.69385769       8.56000000
Ru       0.00000000       6.25847692      10.70000000
Ru      -1.35500000       7.04078653       0.00000000
Ru      -1.35500000       8.60540576       2.14000000
Ru      -1.35500000       7.04078653       4.28000000
Ru      -1.35500000       8.60540576       6.42000000
Ru      -1.35500000       7.04078653       8.56000000
Ru      -1.35500000       8.60540576      10.70000000
Ru       5.42000000       0.00000000       0.00000000
Ru       5.42000000       1.56461923       2.14000000
Ru       5.42000000       0.00000000       4.28000000
Ru       5.42000000       1.56461923       6.42000000
Ru       5.42000000       0.00000000       8.56000000
Ru       5.42000000       1.56461923      10.70000000
Ru       4.06500000       2.34692884       0.00000000
Ru       4.06500000       3.91154807       2.14000000
Ru       4.06500000       2.34692884       4.28000000
Ru       4.06500000       3.91154807       6.42000000
Ru       4.06500000       2.34692884       8.56000000
Ru       4.06500000       3.91154807      10.70000000
Ru       2.71000000       4.69385769       0.00000000
Ru       2.71000000       6.25847692       2.14000000
Ru       2.71000000       4.69385769       4.28000000
Ru       2.71000000       6.25847692       6.42000000
Ru       2.71000000       4.69385769       8.56000000
Ru       2.71000000       6.25847692      10.70000000
Ru       1.35500000       7.04078653       0.00000000
Ru       1.35500000       8.60540576       2.14000000
Ru       1.35500000       7.04078653       4.28000000
Ru       1.35500000       8.60540576       6.42000000
Ru       1.35500000       7.04078653       8.56000000
Ru       1.35500000       8.60540576      10.70000000
Ru       8.13000000       0.00000000       0.00000000
Ru       8.13000000       1.56461923       2.14000000
Ru       8.13000000       0.00000000       4.28000000
Ru       8.13000000       1.56461923       6.42000000
Ru       8.13000000       0.00000000       8.56000000
Ru       8.13000000       1.56461923      10.70000000
Ru       6.77500000       2.34692884       0.00000000
Ru       6.77500000       3.91154807       2.14000000
Ru       6.77500000       2.34692884       4.28000000
Ru       6.77500000       3.91154807       6.42000000
Ru       6.77500000       2.34692884       8.56000000
Ru       6.77500000       3.91154807      10.70000000
Ru       5.42000000       4.69385769       0.00000000
Ru       5.42000000       6.25847692       2.14000000
Ru       5.42000000       4.69385769       4.28000000
Ru       5.42000000       6.25847692       6.42000000
Ru       5.42000000       4.69385769       8.56000000
Ru       5.42000000       6.25847692      10.70000000
Ru       4.06500000       7.04078653       0.00000000
Ru       4.06500000       8.60540576       2.14000000
Ru       4.06500000       7.04078653       4.28000000
Ru       4.06500000       8.60540576       6.42000000
Ru       4.06500000       7.04078653       8.56000000
Ru       4.06500000       8.60540576      10.70000000
96
Lattice="10.92 0.0 0.0 -5.46 9.45699740932607 0.0 0.0 0.0 12.96" Properties=species:S:1:pos:R:3 pbc="T T T"
Os       0.00000000       0.00000000       0.00000000
Os      -0.00000000       1.57616623       2.16000000
Os       0.00000000       0.00000000       4.32000000
Os      -0.00000000       1.57616623       6.48000000
Os       0.00000000       0.00000000       8.64000000
Os      -0.00000000       1.57616623      10.80000000
Os      -1.36500000       2.36424935       0.00000000
Os      -1.36500000       3.94041559       2.16000000
Os      -1.36500000       2.36424935       4.32000000
Os      -1.36500000       3.94041559       6.48000000
Os      -1.36500000       2.36424935       8.64000000
Os      -1.36500000       3.94041559      10.80000000
Os      -2.73000000       4.72849870       0.00000000
Os      -2.73000000       6.30466494       2.16000000
Os      -2.73000000       4.72849870       4.32000000
Os      -2.73000000       6.30466494       6.48000000
Os      -2.73000000       4.72849870       8.64000000
Os      -2.73000000       6.30466494      10.80000000
Os      -4.09500000       7.09274806       0.00000000
Os      -4.09500000       8.66891429       2.16000000
Os      -4.09500000       7.09274806       4.32000000
Os      -4.09500000       8.66891429       6.48000000
Os      -4.09500000       7.09274806       8.64000000
Os      -4.09500000       8.66891429      10.80000000
Os       2.73000000       0.00000000       0.00000000
Os       2.73000000       1.57616623       2.16000000
Os       2.73000000       0.00000000       4.32000000
Os       2.73000000       1.57616623       6.48000000
Os       2.73000000       0.00000000       8.64000000
Os       2.73000000       1.57616623      10.80000000
Os       1.36500000       2.36424935       0.00000000
Os       1.36500000       3.94041559       2.16000000
Os       1.36500000       2.36424935       4.32000000
Os       1.36500000       3.94041559       6.48000000
Os       1.36500000       2.36424935       8.64000000
Os       1.36500000       3.94041559      10.80000000
Os       0.00000000       4.72849870       0.00000000
Os      -0.00000000       6.30466494       2.16000000
Os       0.00000000       4.72849870       4.32000000
Os      -0.00000000       6.30466494       6.48000000
Os       0.00000000       4.72849870       8.64000000
Os      -0.00000000       6.30466494      10.80000000
Os      -1.36500000       7.09274806       0.00000000
Os      -1.36500000       8.66891429       2.16000000
Os      -1.36500000       7.09274806       4.32000000
Os      -1.36500000       8.66891429       6.48000000
Os      -1.36500000       7.09274806       8.64000000
Os      -1.36500000       8.66891429      10.80000000
Os       5.46000000       0.00000000       0.00000000
Os       5.46000000       1.57616623       2.16000000
Os       5.46000000       0.00000000       4.32000000
Os       5.46000000       1.57616623       6.48000000
Os       5.46000000       0.00000000       8.64000000
Os       5.46000000       1.57616623      10.80000000
Os       4.09500000       2.36424935       0.00000000
Os       4.09500000       3.94041559       2.16000000
Os       4.09500000       2.36424935       4.32000000
Os       4.09500000       3.94041559       6.48000000
Os       4.09500000       2.36424935       8.64000000
Os       4.09500000       3.94041559      10.80000000
Os       2.73000000       4.72849870       0.00000000
Os       2.73000000       6.30466494       2.16000000
Os       2.73000000       4.72849870       4.32000000
Os       2.73000000       6.30466494       6.48000000
Os       2.73000000       4.72849870       8.64000000
Os       2.73000000       6.30466494      10.80000000
Os       1.36500000       7.09274806       0.00000000
Os       1.36500000       8.66891429       2.16000000
Os       1.36500000       7.09274806       4.32000000
Os       1.36500000       8.66891429       6.48000000
Os       1.36500000       7.09274806       8.64000000
Os       1.36500000       8.66891429      10.80000000
Os       8.19000000       0.00000000       0.00000000
Os       8.19000000       1.57616623       2.16000000
Os       8.19000000       0.00000000       4.32000000
Os       8.19000000       1.57616623       6.48000000
Os       8.19000000       0.00000000       8.64000000
Os       8.19000000       1.57616623      10.80000000
Os       6.82500000       2.36424935       0.00000000
Os       6.82500000       3.94041559       2.16000000
Os       6.82500000       2.36424935       4.32000000
Os       6.82500000       3.94041559       6.48000000
Os       6.82500000       2.36424935       8.64000000
Os       6.82500000       3.94041559      10.80000000
Os       5.46000000       4.72849870       0.00000000
Os       5.46000000       6.30466494       2.16000000
Os       5.46000000       4.72849870       4.32000000
Os       5.46000000       6.30466494       6.48000000
Os       5.46000000       4.72849870       8.64000000
Os       5.46000000       6.30466494      10.80000000
Os       4.09500000       7.09274806       0.00000000
Os       4.09500000       8.66891429       2.16000000
Os       4.09500000       7.09274806       4.32000000
Os       4.09500000       8.66891429       6.48000000
Os       4.09500000       7.09274806       8.64000000
Os       4.09500000       8.66891429      10.80000000
