54
Lattice="8.61 0.0 0.0 0.0 8.61 0.0 0.0 0.0 8.61" Properties=species:S:1:pos:R:3:initial_magmoms:R:1 pbc="T T T"
Fe       0.00000000       0.00000000       0.00000000       2.30000000
Fe       1.43500000       1.43500000       1.43500000       2.30000000
Fe       0.00000000       0.00000000       2.87000000       2.30000000
Fe       1.43500000       1.43500000       4.30500000       2.30000000
Fe       0.00000000       0.00000000       5.74000000       2.30000000
Fe       1.43500000       1.43500000       7.17500000       2.30000000
Fe       0.00000000       2.87000000       0.00000000       2.30000000
Fe       1.43500000       4.30500000       1.43500000       2.30000000
Fe       0.00000000       2.87000000       2.87000000       2.30000000
Fe       1.43500000       4.30500000       4.30500000       2.30000000
Fe       0.00000000       2.87000000       5.74000000       2.30000000
Fe       1.43500000       4.30500000       7.17500000       2.30000000
Fe       0.00000000       5.74000000       0.00000000       2.30000000
Fe       1.43500000       7.17500000       1.43500000       2.30000000
Fe       0.00000000       5.74000000       2.87000000       2.30000000
Fe       1.43500000       7.17500000       4.30500000       2.30000000
Fe       0.00000000       5.74000000       5.74000000       2.30000000
Fe       1.43500000       7.17500000       7.17500000       2.30000000
Fe       2.87000000       0.00000000       0.00000000       2.30000000
Fe       4.30500000       1.43500000       1.43500000       2.30000000
Fe       2.87000000       0.00000000       2.87000000       2.30000000
Fe       4.30500000       1.43500000       4.30500000       2.30000000
Fe       2.87000000       0.00000000       5.74000000       2.30000000
Fe       4.30500000       1.43500000       7.17500000       2.30000000
Fe       2.87000000       2.87000000       0.00000000       2.30000000
Fe       4.30500000       4.30500000       1.43500000       2.30000000
Fe       2.87000000       2.87000000       2.87000000       2.30000000
Fe       4.30500000       4.30500000       4.30500000       2.30000000
Fe       2.87000000       2.87000000       5.74000000       2.30000000
Fe       4.30500000       4.30500000       7.17500000       2.30000000
Fe       2.87000000       5.74000000       0.00000000       2.30000000
Fe       4.30500000       7.17500000       1.43500000       2.30000000
Fe       2.87000000       5.74000000       2.87000000       2.30000000
Fe       4.30500000       7.17500000       4.30500000       2.30000000
Fe       2.87000000       5.74000000       5.74000000       2.30000000
Fe       4.30500000       7.17500000       7.17500000       2.30000000
Fe       5.74000000       0.00000000       0.00000000       2.30000000
Fe       7.17500000       1.43500000       1.43500000       2.30000000
Fe       5.74000000       0.00000000       2.87000000       2.30000000
Fe       7.17500000       1.43500000       4.30500000       2.30000000
Fe       5.74000000       0.00000000       5.74000000       2.30000000
Fe       7.17500000       1.43500000       7.17500000       2.30000000
Fe       5.74000000       2.87000000       0.00000000       2.30000000
Fe       7.17500000       4.30500000       1.43500000       2.30000000
Fe       5.74000000       2.87000000       2.87000000       2.30000000
Fe       7.17500000       4.30500000       4.30500000       2.30000000
Fe       5.74000000       2.87000000       5.74000000       2.30000000
Fe       7.17500000       4.30500000       7.17500000       2.30000000
Fe       5.74000000       5.74000000       0.00000000       2.30000000
Fe       7.17500000       7.17500000       1.43500000       2.30000000
Fe       5.74000000       5.74000000       2.87000000       2.30000000
Fe       7.17500000       7.17500000       4.30500000       2.30000000
Fe       5.74000000       5.74000000       5.74000000       2.30000000
Fe       7.17500000       7.17500000       7.17500000       2.30000000
54
Lattice="9.48 0.0 0.0 0.0 9.48 0.0 0.0 0.0 9.48" Properties=species:S:1:pos:R:3 pbc="T T T"
W        0.00000000       0.00000000       0.00000000
W        1.58000000       1.58000000       1.58000000
W        0.00000000       0.00000000       3.16000000
W        1.58000000       1.58000000       4.74000000
W        0.00000000       0.00000000       6.32000000
W        1.58000000       1.58000000       7.90000000
W        0.00000000       3.16000000       0.00000000
W        1.58000000       4.74000000       1.58000000
W        0.00000000       3.16000000       3.16000000
W        1.58000000       4.74000000       4.74000000
W        0.00000000       3.16000000       6.32000000
W        1.58000000       4.74000000       7.90000000
W        0.00000000       6.32000000       0.00000000
W        1.58000000       7.90000000       1.58000000
W        0.00000000       6.32000000       3.16000000
W        1.58000000       7.90000000       4.74000000
W        0.00000000       6.32000000       6.32000000
W        1.58000000       7.90000000       7.90000000
W        3.16000000       0.00000000       0.00000000
W        4.74000000       1.58000000       1.58000000
W        3.16000000       0.00000000       3.16000000
W        4.74000000       1.58000000       4.74000000
W        3.16000000       0.00000000       6.32000000
W        4.74000000       1.58000000       7.90000000
W        3.16000000       3.16000000       0.00000000
W        4.74000000       4.74000000       1.58000000
W        3.16000000       3.16000000       3.16000000
W        4.74000000       4.74000000       4.74000000
W        3.16000000       3.16000000       6.32000000
W        4.74000000       4.74000000       7.90000000
W        3.16000000       6.32000000       0.00000000
W        4.74000000       7.90000000       1.58000000
W        3.16000000       6.32000000       3.16000000
W        4.74000000       7.90000000       4.74000000
W        3.16000000       6.32000000       6.32000000
W        4.74000000       7.90000000       7.90000000
W        6.32000000       0.00000000       0.00000000
W        7.90000000       1.58000000       1.58000000
W        6.32000000       0.00000000       3.16000000
W        7.90000000       1.58000000       4.74000000
W        6.32000000       0.00000000       6.32000000
W        7.90000000       1.58000000       7.90000000
W        6.32000000       3.16000000       0.00000000
W        7.90000000       4.74000000       1.58000000
W        6.32000000       3.16000000       3.16000000
W        7.90000000       4.74000000       4.74000000
W        6.32000000       3.16000000       6.32000000
W        7.90000000       4.74000000       7.90000000
W        6.32000000       6.32000000       0.00000000
W        7.90000000       7.90000000       1.58000000
W        6.32000000       6.32000000       3.16000000
W        7.90000000       7.90000000       4.74000000
W        6.32000000       6.32000000       6.32000000
W        7.90000000       7.90000000       7.90000000
