108
Lattice="10.83 0.0 0.0 0.0 10.83 0.0 0.0 0.0 10.83" Properties=species:S:1:pos:R:3 pbc="T T T"
Cu       0.00000000       0.00000000       0.00000000
Cu       0.00000000       1.80500000       1.80500000
Cu       1.80500000       0.00000000       1.80500000
Cu       1.80500000       1.80500000       0.00000000
Cu       0.00000000       0.00000000       3.61000000
Cu       0.00000000       1.80500000       5.41500000
Cu       1.80500000       0.00000000       5.41500000
Cu       1.80500000       1.80500000       3.61000000
Cu       0.00000000       0.00000000       7.22000000
Cu       0.00000000       1.80500000       9.02500000
Cu       1.80500000       0.00000000       9.02500000
Cu       1.80500000       1.80500000       7.22000000
Cu       0.00000000       3.61000000       0.00000000
Cu       0.00000000       5.41500000       1.80500000
Cu       1.80500000       3.61000000       1.80500000
Cu       1.80500000       5.41500000       0.00000000
Cu       0.00000000       3.61000000       3.61000000
Cu       0.00000000       5.41500000       5.41500000
Cu       1.80500000       3.61000000       5.41500000
Cu       1.80500000       5.41500000       3.61000000
Cu       0.00000000       3.61000000       7.22000000
Cu       0.00000000       5.41500000       9.02500000
Cu       1.80500000       3.61000000       9.02500000
Cu       1.80500000       5.41500000       7.22000000
Cu       0.00000000       7.22000000       0.00000000
Cu       0.00000000       9.02500000       1.80500000
Cu       1.80500000       7.22000000       1.80500000
Cu       1.80500000       9.02500000       0.00000000
Cu       0.00000000       7.22000000       3.61000000
Cu       0.00000000       9.02500000       5.41500000
Cu       1.80500000       7.22000000       5.41500000
Cu       1.80500000       9.02500000       3.61000000
Cu       0.00000000       7.22000000       7.22000000
Cu       0.00000000       9.02500000       9.02500000
Cu       1.80500000       7.22000000       9.02500000
Cu       1.80500000       9.02500000       7.22000000
Cu       3.61000000       0.00000000       0.00000000
Cu       3.61000000       1.80500000       1.80500000
Cu       5.41500000       0.00000000       1.80500000
Cu       5.41500000       1.80500000       0.00000000
Cu       3.61000000       0.00000000       3.61000000
Cu       3.61000000       1.80500000       5.41500000
Cu       5.41500000       0.00000000       5.41500000
Cu       5.41500000       1.80500000       3.61000000
Cu       3.61000000       0.00000000       7.22000000
Cu       3.61000000       1.80500000       9.02500000
Cu       5.41500000       0.00000000       9.02500000
Cu       5.41500000       1.80500000       7.22000000
Cu       3.61000000       3.61000000       0.00000000
Cu       3.61000000       5.41500000       1.80500000
Cu       5.41500000       3.61000000       1.80500000
Cu       5.41500000       5.41500000       0.00000000
Cu       3.61000000       3.61000000       3.61000000
Cu       3.61000000       5.41500000       5.41500000
Cu       5.41500000       3.61000000       5.41500000
Cu       5.41500000       5.41500000       3.61000000
Cu       3.61000000       3.61000000       7.22000000
Cu       3.61000000       5.41500000       9.02500000
Cu       5.41500000       3.61000000       9.02500000
Cu       5.41500000       5.41500000       7.22000000
Cu       3.61000000       7.22000000       0.00000000
Cu       3.61000000       9.02500000       1.80500000
Cu       5.41500000       7.22000000       1.80500000
Cu       5.41500000       9.02500000       0.00000000
Cu       3.61000000       7.22000000       3.61000000
Cu       3.61000000       9.02500000       5.41500000
Cu       5.41500000       7.22000000       5.41500000
Cu       5.41500000       9.02500000       3.61000000
Cu       3.61000000       7.22000000       7.22000000
Cu       3.61000000       9.02500000       9.02500000
Cu       5.41500000       7.22000000       9.02500000
Cu       5.41500000       9.02500000       7.22000000
Cu       7.22000000       0.00000000       0.00000000
Cu       7.22000000       1.80500000       1.80500000
Cu       9.02500000       0.00000000       1.80500000
Cu       9.02500000       1.80500000       0.00000000
Cu       7.22000000       0.00000000       3.61000000
Cu       7.22000000       1.80500000       5.41500000
Cu       9.02500000       0.00000000       5.41500000
Cu       9.02500000       1.80500000       3.61000000
Cu       7.22000000       0.00000000       7.22000000
Cu       7.22000000       1.80500000       9.02500000
Cu       9.02500000       0.00000000       9.02500000
Cu       9.02500000       1.80500000       7.22000000
Cu       7.22000000       3.61000000       0.00000000
Cu       7.22000000       5.41500000       1.80500000
Cu       9.02500000       3.61000000       1.80500000
Cu       9.02500000       5.41500000       0.00000000
Cu       7.22000000       3.61000000       3.61000000
Cu       7.22000000       5.41500000       5.41500000
Cu       9.02500000       3.61000000       5.41500000
Cu       9.02500000       5.41500000       3.61000000
Cu       7.22000000       3.61000000       7.22000000
Cu       7.22000000       5.41500000       9.02500000
Cu       9.02500000       3.61000000       9.02500000
Cu       9.02500000       5.41500000       7.22000000
Cu       7.22000000       7.22000000       0.00000000
Cu       7.22000000       9.02500000       1.80500000
Cu       9.02500000       7.22000000       1.80500000
Cu       9.02500000       9.02500000       0.00000000
Cu       7.22000000       7.22000000       3.61000000
Cu       7.22000000       9.02500000       5.41500000
Cu       9.02500000       7.22000000       5.41500000
Cu       9.02500000       9.02500000       3.61000000
Cu       7.22000000       7.22000000       7.22000000
Cu       7.22000000       9.02500000       9.02500000
Cu       9.02500000       7.22000000       9.02500000
Cu       9.02500000       9.02500000       7.22000000
108
Lattice="12.149999999999999 0.0 0.0 0.0 12.149999999999999 0.0 0.0 0.0 12.149999999999999" Properties=species:S:1:pos:R:3 pbc="T T T"
Al       0.00000000       0.00000000       0.00000000
Al       0.00000000       2.02500000       2.02500000
Al       2.02500000       0.00000000       2.02500000
Al       2.02500000       2.02500000       0.00000000
Al       0.00000000       0.00000000       4.05000000
Al       0.00000000       2.02500000       6.07500000
Al       2.02500000       0.00000000       6.07500000
Al       2.02500000       2.02500000       4.05000000
Al       0.00000000       0.00000000       8.10000000
Al       0.00000000       2.02500000      10.12500000
Al       2.02500000       0.00000000      10.12500000
Al       2.02500000       2.02500000       8.10000000
Al       0.00000000       4.05000000       0.00000000
Al       0.00000000       6.07500000       2.02500000
Al       2.02500000       4.05000000       2.02500000
Al       2.02500000       6.07500000       0.00000000
Al       0.00000000       4.05000000       4.05000000
Al       0.00000000       6.07500000       6.07500000
Al       2.02500000       4.05000000       6.07500000
Al       2.02500000       6.07500000       4.05000000
Al       0.00000000       4.05000000       8.10000000
Al       0.00000000       6.07500000      10.12500000
Al       2.02500000       4.05000000      10.12500000
Al       2.02500000       6.07500000       8.10000000
Al       0.00000000       8.10000000       0.00000000
Al       0.00000000      10.12500000       2.02500000
Al       2.02500000       8.10000000       2.02500000
Al       2.02500000      10.12500000       0.00000000
Al       0.00000000       8.10000000       4.05000000
Al       0.00000000      10.12500000       6.07500000
Al       2.02500000       8.10000000       6.07500000
Al       2.02500000      10.12500000       4.05000000
Al       0.00000000       8.10000000       8.10000000
Al       0.00000000      10.12500000      10.12500000
Al       2.02500000       8.10000000      10.12500000
Al       2.02500000      10.12500000       8.10000000
Al       4.05000000       0.00000000       0.00000000
Al       4.05000000       2.02500000       2.02500000
Al       6.07500000       0.00000000       2.02500000
Al       6.07500000       2.02500000       0.00000000
Al       4.05000000       0.00000000       4.05000000
Al       4.05000000       2.02500000       6.07500000
Al       6.07500000       0.00000000       6.07500000
Al       6.07500000       2.02500000       4.05000000
Al       4.05000000       0.00000000       8.10000000
Al       4.05000000       2.02500000      10.12500000
Al       6.07500000       0.00000000      10.12500000
Al       6.07500000       2.02500000       8.10000000
Al       4.05000000       4.05000000       0.00000000
Al       4.05000000       6.07500000       2.02500000
Al       6.07500000       4.05000000       2.02500000
Al       6.07500000       6.07500000       0.00000000
Al       4.05000000       4.05000000       4.05000000
Al       4.05000000       6.07500000       6.07500000
Al       6.07500000       4.05000000       6.07500000
Al       6.07500000       6.07500000       4.05000000
Al       4.05000000       4.05000000       8.10000000
Al       4.05000000       6.07500000      10.12500000
Al       6.07500000       4.05000000      10.12500000
Al       6.07500000       6.07500000       8.10000000
Al       4.05000000       8.10000000       0.00000000
Al       4.05000000      10.12500000       2.02500000
Al       6.07500000       8.10000000       2.02500000
Al       6.07500000      10.12500000       0.00000000
Al       4.05000000       8.10000000       4.05000000
Al       4.05000000      10.12500000       6.07500000
Al       6.07500000       8.10000000       6.07500000
Al       6.07500000      10.12500000       4.05000000
Al       4.05000000       8.10000000       8.10000000
Al       4.05000000      10.12500000      10.12500000
Al       6.07500000       8.10000000      10.12500000
Al       6.07500000      10.12500000       8.10000000
Al       8.10000000       0.00000000       0.00000000
Al       8.10000000       2.02500000       2.02500000
Al      10.12500000       0.00000000       2.02500000
Al      10.12500000       2.02500000       0.00000000
Al       8.10000000       0.00000000       4.05000000
Al       8.10000000       2.02500000       6.07500000
Al      10.12500000       0.00000000       6.07500000
Al      10.12500000       2.02500000       4.05000000
Al       8.10000000       0.00000000       8.10000000
Al       8.10000000       2.02500000      10.12500000
Al      10.12500000       0.00000000      10.12500000
Al      10.12500000       2.02500000       8.10000000
Al       8.10000000       4.05000000       0.00000000
Al       8.10000000       6.07500000       2.02500000
Al      10.12500000       4.05000000       2.02500000
Al      10.12500000       6.07500000       0.00000000
Al       8.10000000       4.05000000       4.05000000
Al       8.10000000       6.07500000       6.07500000
Al      10.12500000       4.05000000       6.07500000
Al      10.12500000       6.07500000       4.05000000
Al       8.10000000       4.05000000       8.10000000
Al       8.10000000       6.07500000      10.12500000
Al      10.12500000       4.05000000      10.12500000
Al      10.12500000       6.07500000       8.10000000
Al       8.10000000       8.10000000       0.00000000
Al       8.10000000      10.12500000       2.02500000
Al      10.12500000       8.10000000       2.02500000
Al      10.12500000      10.12500000       0.00000000
Al       8.10000000       8.10000000       4.05000000
Al       8.10000000      10.12500000       6.07500000
Al      10.12500000       8.10000000       6.07500000
Al      10.12500000      10.12500000       4.05000000
Al       8.10000000       8.10000000       8.10000000
Al       8.10000000      10.12500000      10.12500000
Al      10.12500000       8.10000000      10.12500000
Al      10.12500000      10.12500000       8.10000000
