54
Lattice="8.61 0.0 0.0 0.0 8.61 0.0 0.0 0.0 8.61" Properties=species:S:1:pos:R:3:initial_magmoms:R:1 pbc="T T T"
Fe       0.00000000       0.00000000       0.00000000       2.30000000
Fe       1.43500000       1.43500000       1.43500000       2.30000000
Fe       0.00000000       0.00000000       2.87000000       2.30000000
Fe       1.43500000       1.43500000       4.30500000       2.30000000
Fe       0.00000000       0.00000000       5.74000000       2.30000000
Fe       1.43500000       1.43500000       7.17500000       2.30000000
Fe       0.00000000       2.87000000       0.00000000       2.30000000
Fe       1.43500000       4.30500000       1.43500000       2.30000000
Fe       0.00000000       2.87000000       2.87000000       2.30000000
Fe       1.43500000       4.30500000       4.30500000       2.30000000
Fe       0.00000000       2.87000000       5.74000000       2.30000000
Fe       1.43500000       4.30500000       7.17500000       2.30000000
Fe       0.00000000       5.74000000       0.00000000       2.30000000
Fe       1.43500000       7.17500000       1.43500000       2.30000000
Fe       0.00000000       5.74000000       2.87000000       2.30000000
Fe       1.43500000       7.17500000       4.30500000       2.30000000
Fe       0.00000000       5.74000000       5.74000000       2.30000000
Fe       1.43500000       7.17500000       7.17500000       2.30000000
Fe       2.87000000       0.00000000       0.00000000       2.30000000
Fe       4.30500000       1.43500000       1.43500000       2.30000000
Fe       2.87000000       0.00000000       2.87000000       2.30000000
Fe       4.30500000       1.43500000       4.30500000       2.30000000
Fe       2.87000000       0.00000000       5.74000000       2.30000000
Fe       4.30500000       1.43500000       7.17500000       2.30000000
Fe       2.87000000       2.87000000       0.00000000       2.30000000
Fe       4.30500000       4.30500000       1.43500000       2.30000000
Fe       2.87000000       2.87000000       2.87000000       2.30000000
Fe       4.30500000       4.30500000       4.30500000       2.30000000
Fe       2.87000000       2.87000000       5.74000000       2.30000000
Fe       4.30500000       4.30500000       7.17500000       2.30000000
Fe       2.87000000       5.74000000       0.00000000       2.30000000
Fe       4.30500000       7.17500000       1.43500000       2.30000000
Fe       2.87000000       5.74000000       2.87000000       2.30000000
Fe       4.30500000       7.17500000       4.30500000       2.30000000
Fe       2.87000000       5.74000000       5.74000000       2.30000000
Fe       4.30500000       7.17500000       7.17500000       2.30000000
Fe       5.74000000       0.00000000       0.00000000       2.30000000
Fe       7.17500000       1.43500000       1.43500000       2.30000000
Fe       5.74000000       0.00000000       2.87000000       2.30000000
Fe       7.17500000       1.43500000       4.30500000       2.30000000
Fe       5.74000000       0.00000000       5.74000000       2.30000000
Fe       7.17500000       1.43500000       7.17500000       2.30000000
Fe       5.74000000       2.87000000       0.00000000       2.30000000
Fe       7.17500000       4.30500000       1.43500000       2.30000000
Fe       5.74000000       2.87000000       2.87000000       2.30000000
Fe       7.17500000       4.30500000       4.30500000       2.30000000
Fe       5.74000000       2.87000000       5.74000000       2.30000000
Fe       7.17500000       4.30500000       7.17500000       2.30000000
Fe       5.74000000       5.74000000       0.00000000       2.30000000
Fe       7.17500000       7.17500000       1.43500000       2.30000000
Fe       5.74000000       5.74000000       2.87000000       2.30000000
Fe       7.17500000       7.17500000       4.30500000       2.30000000
Fe       5.74000000       5.74000000       5.74000000       2.30000000
Fe       7.17500000       7.17500000       7.17500000       2.30000000
